; SWMM INP文件
; 生成时间: 2026-03-27 21:26:11
; 包含元素: 节点(524), 管道(522), 排放口(19), 子汇水区(560)

[OPTIONS]
FLOW_UNITS           CFS
INFILTRATION         HORTON
FLOW_ROUTING         DYNWAVE
LINK_OFFSETS         DEPTH
MIN_SLOPE            0
ALLOW_PONDING        NO
SKIP_STEADY_STATE    NO

START_DATE           01/01/2025
START_TIME           00:00:00
REPORT_START_DATE    01/01/2025
REPORT_START_TIME    00:00:00
END_DATE             01/01/2025
END_TIME             02:00:00
SWEEP_START          1/1
SWEEP_END            12/31
DRY_DAYS             0
REPORT_STEP          00:10:00
WET_STEP             00:05:00
DRY_STEP             01:00:00
ROUTING_STEP         0:00:10 

INERTIAL_DAMPING     PARTIAL
NORMAL_FLOW_LIMITED  BOTH
FORCE_MAIN_EQUATION  H-W
VARIABLE_STEP        0.75
LENGTHENING_STEP     0
MIN_SURFAREA         0
MAX_TRIALS           0
HEAD_TOLERANCE       0
SYS_FLOW_TOL         5
LAT_FLOW_TOL         5

[RAINGAGES]
;Name            Form            Intvl            SCF            Tseries
;--------------- --------------- -------------- -------------- --------------
RG1            INTENSITY            0.01            1.0            TIMESERIES Rainfall01

[TIMESERIES]
;Name                Date                Time                Value
;------------------- ------------------- ------------------- -------------------
TIDE1           01/01/2025     00:00:00        0.5
TIDE1           01/01/2025     06:00:00        1.2
TIDE1           01/01/2025     12:00:00        0.3
TIDE1           01/01/2025     18:00:00        1.0
Rainfall01           01/01/2025           0:00                 0.13744985          
Rainfall01           01/01/2025           0:01                 0.14048593          
Rainfall01           01/01/2025           0:02                 0.14367101          
Rainfall01           01/01/2025           0:03                 0.14701636          
Rainfall01           01/01/2025           0:04                 0.15053438          
Rainfall01           01/01/2025           0:05                 0.15423882          
Rainfall01           01/01/2025           0:06                 0.15814487          
Rainfall01           01/01/2025           0:07                 0.16226942          
Rainfall01           01/01/2025           0:08                 0.16663128          
Rainfall01           01/01/2025           0:09                 0.17125145          
Rainfall01           01/01/2025           0:10                 0.17615345          
Rainfall01           01/01/2025           0:11                 0.18136372          
Rainfall01           01/01/2025           0:12                 0.18691205          
Rainfall01           01/01/2025           0:13                 0.19283214          
Rainfall01           01/01/2025           0:14                 0.19916228          
Rainfall01           01/01/2025           0:15                 0.20594609          
Rainfall01           01/01/2025           0:16                 0.21323350          
Rainfall01           01/01/2025           0:17                 0.22108192          
Rainfall01           01/01/2025           0:18                 0.22955767          
Rainfall01           01/01/2025           0:19                 0.23873775          
Rainfall01           01/01/2025           0:20                 0.24871200          
Rainfall01           01/01/2025           0:21                 0.25958590          
Rainfall01           01/01/2025           0:22                 0.27148407          
Rainfall01           01/01/2025           0:23                 0.28455465          
Rainfall01           01/01/2025           0:24                 0.29897511          
Rainfall01           01/01/2025           0:25                 0.31495964          
Rainfall01           01/01/2025           0:26                 0.33276903          
Rainfall01           01/01/2025           0:27                 0.35272373          
Rainfall01           01/01/2025           0:28                 0.37522152          
Rainfall01           01/01/2025           0:29                 0.40076179          
Rainfall01           01/01/2025           0:30                 0.42997926          
Rainfall01           01/01/2025           0:31                 0.46369194          
Rainfall01           01/01/2025           0:32                 0.50297042          
Rainfall01           01/01/2025           0:33                 0.54924050          
Rainfall01           01/01/2025           0:34                 0.60443896          
Rainfall01           01/01/2025           0:35                 0.67125693          
Rainfall01           01/01/2025           0:36                 0.75353301          
Rainfall01           01/01/2025           0:37                 0.85691295          
Rainfall01           01/01/2025           0:38                 0.99000817          
Rainfall01           01/01/2025           0:39                 1.16654302          
Rainfall01           01/01/2025           0:40                 1.40960506          
Rainfall01           01/01/2025           0:41                 1.76077595          
Rainfall01           01/01/2025           0:42                 2.30192265          
Rainfall01           01/01/2025           0:43                 1.97940216          
Rainfall01           01/01/2025           0:44                 1.72844247          
Rainfall01           01/01/2025           0:45                 1.52865272          
Rainfall01           01/01/2025           0:46                 1.36652484          
Rainfall01           01/01/2025           0:47                 1.23280046          
Rainfall01           01/01/2025           0:48                 1.12094812          
Rainfall01           01/01/2025           0:49                 1.02624447          
Rainfall01           01/01/2025           0:50                 0.94519940          
Rainfall01           01/01/2025           0:51                 0.87518497          
Rainfall01           01/01/2025           0:52                 0.81418913          
Rainfall01           01/01/2025           0:53                 0.76064835          
Rainfall01           01/01/2025           0:54                 0.71333138          
Rainfall01           01/01/2025           0:55                 0.67125693          
Rainfall01           01/01/2025           0:56                 0.63363440          
Rainfall01           01/01/2025           0:57                 0.59982048          
Rainfall01           01/01/2025           0:58                 0.56928698          
Rainfall01           01/01/2025           0:59                 0.54159661          
Rainfall01           01/01/2025           1:00                 0.51638458          
Rainfall01           01/01/2025           1:01                 0.49334441          
Rainfall01           01/01/2025           1:02                 0.47221691          
Rainfall01           01/01/2025           1:03                 0.45278159          
Rainfall01           01/01/2025           1:04                 0.43484977          
Rainfall01           01/01/2025           1:05                 0.41825919          
Rainfall01           01/01/2025           1:06                 0.40286958          
Rainfall01           01/01/2025           1:07                 0.38855910          
Rainfall01           01/01/2025           1:08                 0.37522152          
Rainfall01           01/01/2025           1:09                 0.36276378          
Rainfall01           01/01/2025           1:10                 0.35110408          
Rainfall01           01/01/2025           1:11                 0.34017023          
Rainfall01           01/01/2025           1:12                 0.32989830          
Rainfall01           01/01/2025           1:13                 0.32023152          
Rainfall01           01/01/2025           1:14                 0.31111928          
Rainfall01           01/01/2025           1:15                 0.30251636          
Rainfall01           01/01/2025           1:16                 0.29438222          
Rainfall01           01/01/2025           1:17                 0.28668043          
Rainfall01           01/01/2025           1:18                 0.27937817          
Rainfall01           01/01/2025           1:19                 0.27244581          
Rainfall01           01/01/2025           1:20                 0.26585650          
Rainfall01           01/01/2025           1:21                 0.25958590          
Rainfall01           01/01/2025           1:22                 0.25361188          
Rainfall01           01/01/2025           1:23                 0.24791426          
Rainfall01           01/01/2025           1:24                 0.24247463          
Rainfall01           01/01/2025           1:25                 0.23727615          
Rainfall01           01/01/2025           1:26                 0.23230340          
Rainfall01           01/01/2025           1:27                 0.22754221          
Rainfall01           01/01/2025           1:28                 0.22297957          
Rainfall01           01/01/2025           1:29                 0.21860347          
Rainfall01           01/01/2025           1:30                 0.21440288          
Rainfall01           01/01/2025           1:31                 0.21036757          
Rainfall01           01/01/2025           1:32                 0.20648809          
Rainfall01           01/01/2025           1:33                 0.20275570          
Rainfall01           01/01/2025           1:34                 0.19916228          
Rainfall01           01/01/2025           1:35                 0.19570029          
Rainfall01           01/01/2025           1:36                 0.19236271          
Rainfall01           01/01/2025           1:37                 0.18914303          
Rainfall01           01/01/2025           1:38                 0.18603515          
Rainfall01           01/01/2025           1:39                 0.18303341          
Rainfall01           01/01/2025           1:40                 0.18013249          
Rainfall01           01/01/2025           1:41                 0.17732743          
Rainfall01           01/01/2025           1:42                 0.17461360          
Rainfall01           01/01/2025           1:43                 0.17198663          
Rainfall01           01/01/2025           1:44                 0.16944245          
Rainfall01           01/01/2025           1:45                 0.16697723          
Rainfall01           01/01/2025           1:46                 0.16458734          
Rainfall01           01/01/2025           1:47                 0.16226942          
Rainfall01           01/01/2025           1:48                 0.16002027          
Rainfall01           01/01/2025           1:49                 0.15783687          
Rainfall01           01/01/2025           1:50                 0.15571640          
Rainfall01           01/01/2025           1:51                 0.15365618          
Rainfall01           01/01/2025           1:52                 0.15165368          
Rainfall01           01/01/2025           1:53                 0.14970651          
Rainfall01           01/01/2025           1:54                 0.14781240          
Rainfall01           01/01/2025           1:55                 0.14596923          
Rainfall01           01/01/2025           1:56                 0.14417495          
Rainfall01           01/01/2025           1:57                 0.14242766          
Rainfall01           01/01/2025           1:58                 0.14072551          
Rainfall01           01/01/2025           1:59                 0.13906679          

[SUBCATCHMENTS]
;Name              RainGage            Outlet              Area                Imperv              Width               Slope               CurbLength          SnowPack
;-------------------- ------------------- ------------------- ------------------- ------------------- ------------------- ------------------- ------------------- -------------------
1                    RG1                  CY97                 189.10               75.15                9.28                 0.55                 0.0                                      
2                    RG1                  AY24                 1069.90              90.00                21.24                0.83                 0.0                                      
3                    RG1                  CY145-7              177.48               81.75                18.02                0.51                 0.0                                      
4                    RG1                  CY101                785.31               31.25                29.91                41.68                0.0                                      
5                    RG1                  CY133                240.53               35.85                24.42                40.34                0.0                                      
6                    RG1                  BY1-2                402.79               78.89                19.14                1.25                 0.0                                      
7                    RG1                  DY524                2390.19              29.06                34.21                1.16                 0.0                                      
8                    RG1                  AY16-1               992.11               45.73                33.39                31.10                0.0                                      
9                    RG1                  CY69T1               2480.02              17.56                31.23                0.36                 0.0                                      
10                   RG1                  GY226                585.74               90.00                22.78                0.62                 0.0                                      
11                   RG1                  CY147                837.74               90.00                22.56                0.34                 0.0                                      
12                   RG1                  AY36                 4239.62              90.00                44.74                1.35                 0.0                                      
13                   RG1                  CY117                553.64               40.97                24.88                40.04                0.0                                      
14                   RG1                  DY502                1105.43              49.04                39.98                2.52                 0.0                                      
15                   RG1                  AY60                 963.44               90.00                39.27                0.99                 0.0                                      
16                   RG1                  AY130                2873.36              75.97                295.62               1.55                 0.0                                      
17                   RG1                  AY64                 1778.81              90.00                24.28                0.72                 0.0                                      
18                   RG1                  AY93-2               4108.63              24.51                42.78                1.54                 0.0                                      
19                   RG1                  BY20                 1978.24              54.16                24.42                19.37                0.0                                      
20                   RG1                  CY112                182.49               73.32                8.78                 0.28                 0.0                                      
21                   RG1                  AY72                 4402.98              45.62                52.68                7.90                 0.0                                      
22                   RG1                  BY178-3              2781.86              67.05                30.41                7.61                 0.0                                      
23                   RG1                  CY1216               5185.31              54.12                81.84                14.06                0.0                                      
24                   RG1                  CY62T1               678.94               26.31                20.32                0.34                 0.0                                      
25                   RG1                  AY55-11              2243.24              90.00                230.77               15.84                0.0                                      
26                   RG1                  AY34                 7001.74              88.34                92.85                1.26                 0.0                                      
27                   RG1                  BY182-2              1226.02              73.49                31.56                1.84                 0.0                                      
28                   RG1                  AY31                 2349.25              78.10                33.15                17.54                0.0                                      
29                   RG1                  AY218                3076.10              58.07                38.05                1.03                 0.0                                      
30                   RG1                  AYS13                5912.33              72.38                65.14                14.95                0.0                                      
31                   RG1                  BY10                 2266.75              38.51                36.96                2.59                 0.0                                      
32                   RG1                  DY383                521.36               65.30                13.42                1.59                 0.0                                      
33                   RG1                  CY137                366.22               38.81                20.38                51.30                0.0                                      
34                   RG1                  AY99                 777.12               63.48                30.16                0.61                 0.0                                      
35                   RG1                  AY59                 1593.96              90.00                34.81                1.25                 0.0                                      
36                   RG1                  AY137                1703.42              21.97                21.24                0.39                 0.0                                      
37                   RG1                  DY505                1102.11              49.26                39.69                3.16                 0.0                                      
38                   RG1                  AY325-1              4655.47              75.31                53.87                0.31                 0.0                                      
39                   RG1                  AY113                1122.37              59.81                11.35                0.17                 0.0                                      
40                   RG1                  BY190                1355.98              90.00                33.75                1.70                 0.0                                      
41                   RG1                  AY126                2385.93              51.67                24.96                6.18                 0.0                                      
42                   RG1                  AY55-5               922.21               90.00                103.34               2.18                 0.0                                      
43                   RG1                  CY99                 677.89               20.65                26.55                41.83                0.0                                      
44                   RG1                  CY145-10             1001.59              21.65                118.54               0.54                 0.0                                      
45                   RG1                  BY120                7305.62              72.59                74.75                0.25                 0.0                                      
46                   RG1                  CY119                551.42               20.10                22.02                46.66                0.0                                      
47                   RG1                  AY54                 2851.03              90.00                289.77               23.00                0.0                                      
48                   RG1                  AY55                 254.48               90.00                11.66                1.62                 0.0                                      
49                   RG1                  CY131                406.07               85.24                48.06                0.80                 0.0                                      
50                   RG1                  GY228                1805.00              44.32                30.02                0.82                 0.0                                      
51                   RG1                  DY511                3555.86              24.74                37.92                4.74                 0.0                                      
52                   RG1                  AY102                1017.27              35.89                18.75                4.69                 0.0                                      
53                   RG1                  AY97-2               3380.73              20.00                35.20                1.43                 0.0                                      
54                   RG1                  AY64-2               2537.45              54.73                28.77                2.88                 0.0                                      
55                   RG1                  CY130                412.06               90.00                53.09                0.75                 0.0                                      
56                   RG1                  BY178A               1463.21              90.00                33.37                0.75                 0.0                                      
57                   RG1                  BY6                  1691.70              74.27                35.95                2.90                 0.0                                      
58                   RG1                  GY249                2104.95              90.00                32.68                3.13                 0.0                                      
59                   RG1                  GY202                2633.03              75.17                36.63                8.02                 0.0                                      
60                   RG1                  AY57-1               3514.49              90.00                37.47                16.15                0.0                                      
61                   RG1                  AY207                2279.75              90.00                32.20                0.52                 0.0                                      
62                   RG1                  BY7                  1450.80              53.91                37.88                2.86                 0.0                                      
63                   RG1                  AY63-2               5289.06              49.75                59.96                2.81                 0.0                                      
64                   RG1                  DY402                1495.74              90.00                32.39                2.13                 0.0                                      
65                   RG1                  AY55-7               316.15               90.00                32.60                9.67                 0.0                                      
66                   RG1                  BY178                1687.69              90.00                25.74                0.47                 0.0                                      
67                   RG1                  AY18                 2052.03              54.50                43.93                1.02                 0.0                                      
68                   RG1                  DY435                3210.44              82.87                54.03                2.37                 0.0                                      
69                   RG1                  AY319                9616.68              56.19                98.04                3.42                 0.0                                      
70                   RG1                  CY92                 871.74               34.53                29.88                33.96                0.0                                      
71                   RG1                  CY164                3472.03              53.61                58.96                0.87                 0.0                                      
72                   RG1                  AY217                2681.75              60.66                35.84                0.78                 0.0                                      
73                   RG1                  BY17                 4191.08              61.82                169.17               0.31                 0.0                                      
74                   RG1                  AY54-12              578.03               40.69                92.60                6.47                 0.0                                      
75                   RG1                  AY202X               1669.99              90.00                37.30                1.50                 0.0                                      
76                   RG1                  BY107                1715.87              68.05                41.44                8.46                 0.0                                      
77                   RG1                  CY116                669.71               37.45                29.11                41.83                0.0                                      
78                   RG1                  AY88                 651.24               90.00                74.51                3.56                 0.0                                      
79                   RG1                  DY400                822.96               59.06                35.12                4.44                 0.0                                      
80                   RG1                  AY198                2678.95              90.00                38.16                1.88                 0.0                                      
81                   RG1                  AY54-10              223.51               90.00                35.81                0.83                 0.0                                      
82                   RG1                  DY414                2345.31              90.00                38.97                3.98                 0.0                                      
83                   RG1                  DY507                1057.00              51.81                38.34                5.56                 0.0                                      
84                   RG1                  AY55-4               456.22               90.00                46.93                4.66                 0.0                                      
85                   RG1                  AY132                1183.02              32.97                121.71               0.61                 0.0                                      
86                   RG1                  AY55-10              1378.92              90.00                142.19               2.74                 0.0                                      
87                   RG1                  AY160                2067.46              45.71                39.54                1.62                 0.0                                      
88                   RG1                  AY23                 1282.60              60.74                22.06                1.32                 0.0                                      
89                   RG1                  CY1199               1583.35              62.38                36.60                7.14                 0.0                                      
90                   RG1                  AY54-11              471.90               90.00                19.66                0.80                 0.0                                      
91                   RG1                  BY176                2420.19              90.00                27.90                0.32                 0.0                                      
92                   RG1                  AY85                 671.13               90.00                16.49                4.13                 0.0                                      
93                   RG1                  AY147                1076.11              86.10                19.24                1.33                 0.0                                      
94                   RG1                  AY32                 3111.53              75.82                41.79                13.60                0.0                                      
95                   RG1                  CY66T1               2372.23              17.31                29.57                0.31                 0.0                                      
96                   RG1                  DY529                2832.20              30.88                35.65                2.63                 0.0                                      
97                   RG1                  CY157                268.99               90.00                18.90                0.65                 0.0                                      
98                   RG1                  AY86-3               964.43               90.00                21.82                5.27                 0.0                                      
99                   RG1                  AY74--2              1719.62              90.00                266.01               4.65                 0.0                                      
100                  RG1                  AY320                3917.50              67.53                39.94                5.26                 0.0                                      
101                  RG1                  BY1                  918.16               53.61                30.45                1.64                 0.0                                      
102                  RG1                  BY118                2050.49              89.65                40.39                0.77                 0.0                                      
103                  RG1                  AY144                2887.07              52.44                39.05                2.43                 0.0                                      
104                  RG1                  DY426                719.08               67.30                20.37                0.85                 0.0                                      
105                  RG1                  CY90                 380.36               20.10                38.94                45.10                0.0                                      
106                  RG1                  AY93                 263.49               58.02                18.78                0.55                 0.0                                      
107                  RG1                  AY103                1349.52              31.41                21.63                2.60                 0.0                                      
108                  RG1                  AY326                5172.78              75.64                54.03                0.51                 0.0                                      
109                  RG1                  CY62T2               459.91               67.78                24.88                0.50                 0.0                                      
110                  RG1                  BY119                4869.27              75.18                56.10                0.37                 0.0                                      
111                  RG1                  CY110                665.40               37.30                29.05                41.71                0.0                                      
112                  RG1                  AY43                 1409.68              37.17                201.19               2.12                 0.0                                      
113                  RG1                  CY145-9              958.22               21.95                97.81                0.43                 0.0                                      
114                  RG1                  BY106                4487.30              52.65                49.06                15.85                0.0                                      
115                  RG1                  AY76                 230.00               90.00                7.17                 0.75                 0.0                                      
116                  RG1                  AY55-1               535.39               90.00                22.61                1.55                 0.0                                      
117                  RG1                  GY243                3024.90              87.37                31.81                0.56                 0.0                                      
118                  RG1                  BY16                 4417.62              63.58                45.61                0.34                 0.0                                      
119                  RG1                  CY145-17             256.56               44.96                27.95                0.82                 0.0                                      
120                  RG1                  AY55-6               234.74               90.00                24.15                5.87                 0.0                                      
121                  RG1                  GY210                1635.88              33.80                39.91                2.33                 0.0                                      
122                  RG1                  AY78                 1244.29              86.54                20.06                1.68                 0.0                                      
123                  RG1                  BY180-2              2839.71              39.78                33.85                2.19                 0.0                                      
124                  RG1                  DY396                662.36               57.12                31.32                2.81                 0.0                                      
125                  RG1                  AY208                1327.92              90.00                38.78                0.37                 0.0                                      
126                  RG1                  GY232                3974.61              26.93                45.68                1.36                 0.0                                      
127                  RG1                  CY128                144.76               57.83                15.77                16.03                0.0                                      
128                  RG1                  AY45                 2680.46              37.40                30.03                2.09                 0.0                                      
129                  RG1                  BY172                5718.77              51.38                58.30                1.31                 0.0                                      
130                  RG1                  BY25                 714.79               49.97                80.12                41.48                0.0                                      
131                  RG1                  CY76T1               3078.11              32.40                308.79               5.10                 0.0                                      
132                  RG1                  AY136                1536.55              23.70                19.81                0.43                 0.0                                      
133                  RG1                  CY106                563.60               20.00                21.98                58.16                0.0                                      
134                  RG1                  AY83                 1185.51              90.00                21.53                2.31                 0.0                                      
135                  RG1                  BY181-4              1837.73              10.01                207.60               23.64                0.0                                      
136                  RG1                  CY120                434.38               20.00                17.77                29.06                0.0                                      
137                  RG1                  CY145-8              4232.61              11.44                52.76                0.37                 0.0                                      
138                  RG1                  GY218                4210.35              90.00                187.39               1.07                 0.0                                      
139                  RG1                  CY72T1               1417.10              18.27                21.54                0.44                 0.0                                      
140                  RG1                  BY24                 932.19               52.95                40.53                28.86                0.0                                      
141                  RG1                  DY423                974.80               66.09                22.17                1.33                 0.0                                      
142                  RG1                  AY105                854.48               53.74                25.39                4.06                 0.0                                      
143                  RG1                  AY74--1              1689.21              90.00                25.91                1.79                 0.0                                      
144                  RG1                  AY151                1234.81              31.09                21.34                3.45                 0.0                                      
145                  RG1                  AY155                1355.12              68.34                34.68                2.54                 0.0                                      
146                  RG1                  CY145-18             219.62               71.71                25.05                1.16                 0.0                                      
147                  RG1                  AY138                1308.00              25.58                20.73                0.42                 0.0                                      
148                  RG1                  BY30                 3292.51              58.22                44.95                26.90                0.0                                      
149                  RG1                  CY142                732.38               57.59                75.06                17.32                0.0                                      
150                  RG1                  DY405                1659.33              90.00                25.27                1.79                 0.0                                      
151                  RG1                  AY70                 793.11               85.18                37.83                0.93                 0.0                                      
152                  RG1                  CY115                193.36               77.93                9.18                 0.68                 0.0                                      
153                  RG1                  CY145-3              2094.29              17.00                26.35                1.84                 0.0                                      
154                  RG1                  AYS3                 7673.05              62.98                53.37                5.18                 0.0                                      
155                  RG1                  GY258                4101.69              90.00                57.08                0.26                 0.0                                      
156                  RG1                  AY86-10              3855.81              87.88                64.89                2.59                 0.0                                      
157                  RG1                  CY114                551.99               20.00                22.05                53.42                0.0                                      
158                  RG1                  AY128                1675.92              56.09                18.96                0.24                 0.0                                      
159                  RG1                  AY91                 544.40               90.00                15.69                0.50                 0.0                                      
160                  RG1                  AY129                1347.24              41.53                138.61               3.00                 0.0                                      
161                  RG1                  DY409                2137.20              90.00                26.74                2.37                 0.0                                      
162                  RG1                  DY398                705.28               54.31                35.77                4.90                 0.0                                      
163                  RG1                  AY68                 2041.71              90.00                27.48                11.27                0.0                                      
164                  RG1                  BY171                7113.84              44.86                74.31                1.15                 0.0                                      
165                  RG1                  BY110                2930.33              52.68                46.30                10.40                0.0                                      
166                  RG1                  GY223                3605.74              90.00                38.05                0.79                 0.0                                      
167                  RG1                  AY327                5059.03              71.34                53.15                2.04                 0.0                                      
168                  RG1                  BY23                 904.25               56.71                39.32                27.61                0.0                                      
169                  RG1                  BY113                1221.99              90.00                17.72                17.36                0.0                                      
170                  RG1                  CY109                189.06               69.84                9.08                 0.17                 0.0                                      
171                  RG1                  AY75                 121.83               90.00                13.49                1.41                 0.0                                      
172                  RG1                  BY19                 3180.17              56.73                34.82                7.58                 0.0                                      
173                  RG1                  BY125                1678.84              90.00                37.13                1.41                 0.0                                      
174                  RG1                  DY418                874.57               90.00                34.28                1.34                 0.0                                      
175                  RG1                  AY69-2               1154.93              90.00                24.09                2.35                 0.0                                      
176                  RG1                  AY65-1               1014.49              82.02                23.00                0.33                 0.0                                      
177                  RG1                  BY181-3              477.07               89.57                51.27                28.31                0.0                                      
178                  RG1                  BY22                 808.17               62.02                88.05                17.25                0.0                                      
179                  RG1                  AY109                3218.17              59.01                33.23                0.15                 0.0                                      
180                  RG1                  CY151                1371.01              90.00                30.97                1.94                 0.0                                      
181                  RG1                  AY191                2334.02              90.00                30.01                0.93                 0.0                                      
182                  RG1                  DY531                2114.88              32.32                36.28                3.96                 0.0                                      
183                  RG1                  AY54-16              2758.41              90.00                28.53                0.62                 0.0                                      
184                  RG1                  BY29                 2411.30              51.91                31.33                27.61                0.0                                      
185                  RG1                  GY196                1045.11              59.33                30.50                1.13                 0.0                                      
186                  RG1                  AY29                 2005.48              43.09                30.18                13.23                0.0                                      
187                  RG1                  AY115                2763.17              55.52                174.66               0.12                 0.0                                      
188                  RG1                  AY71                 1786.35              45.23                37.43                6.31                 0.0                                      
189                  RG1                  AY66-2               749.51               90.00                17.24                1.97                 0.0                                      
190                  RG1                  CY72                 177.38               69.08                9.06                 0.70                 0.0                                      
191                  RG1                  DY413                3569.79              90.00                48.47                2.76                 0.0                                      
192                  RG1                  AY79                 1322.25              86.59                19.46                0.19                 0.0                                      
193                  RG1                  AY90                 902.26               90.00                21.51                3.34                 0.0                                      
194                  RG1                  BY28                 2815.66              52.53                39.53                11.90                0.0                                      
195                  RG1                  BY14                 2788.84              68.23                41.43                0.39                 0.0                                      
196                  RG1                  CY107                617.69               37.19                27.26                45.43                0.0                                      
197                  RG1                  DY415                5387.14              90.00                63.98                1.38                 0.0                                      
198                  RG1                  AY118                1460.81              52.24                17.16                0.40                 0.0                                      
199                  RG1                  DY504                497.46               75.56                50.47                2.87                 0.0                                      
200                  RG1                  BY181-2              1755.45              64.47                188.64               5.52                 0.0                                      
201                  RG1                  AYS8                 3416.53              82.65                34.23                0.63                 0.0                                      
202                  RG1                  DY419                781.01               63.08                30.22                1.42                 0.0                                      
203                  RG1                  AY89                 1071.24              90.00                113.60               2.60                 0.0                                      
204                  RG1                  GY236                2310.18              36.53                27.75                2.17                 0.0                                      
205                  RG1                  DY526                2840.51              27.60                37.22                2.21                 0.0                                      
206                  RG1                  CY85                 165.45               57.89                8.10                 32.44                0.0                                      
207                  RG1                  BY109                1595.80              55.69                33.45                12.23                0.0                                      
208                  RG1                  AY124                1711.64              72.44                20.05                3.20                 0.0                                      
209                  RG1                  AYS10                5469.48              77.22                73.53                17.04                0.0                                      
210                  RG1                  BY18                 3523.37              64.82                36.99                5.12                 0.0                                      
211                  RG1                  AY57                 831.89               90.00                11.70                4.40                 0.0                                      
212                  RG1                  AY80                 1265.05              84.51                23.29                0.24                 0.0                                      
213                  RG1                  GY205                1251.09              38.55                31.89                4.10                 0.0                                      
214                  RG1                  AY201                771.88               90.00                20.12                0.77                 0.0                                      
215                  RG1                  CY135                285.35               35.99                15.88                60.03                0.0                                      
216                  RG1                  AY16                 784.16               48.99                102.69               30.30                0.0                                      
217                  RG1                  CY159                757.84               90.00                21.32                0.40                 0.0                                      
218                  RG1                  AY58                 2048.81              90.00                29.85                2.83                 0.0                                      
219                  RG1                  AY204                3371.30              90.00                44.64                0.76                 0.0                                      
220                  RG1                  CY111                438.59               20.00                45.37                52.61                0.0                                      
221                  RG1                  AY153                608.31               44.70                20.84                4.06                 0.0                                      
222                  RG1                  BY175-2              1021.39              90.00                25.10                16.67                0.0                                      
223                  RG1                  GY212                2419.59              50.39                51.22                1.69                 0.0                                      
224                  RG1                  AYS14                4231.60              74.41                43.52                9.28                 0.0                                      
225                  RG1                  AY317                6353.24              52.12                66.99                2.92                 0.0                                      
226                  RG1                  DY503                424.45               65.36                50.79                2.86                 0.0                                      
227                  RG1                  AY19                 3750.35              59.85                45.47                1.64                 0.0                                      
228                  RG1                  CY145-19             234.84               42.08                10.21                1.08                 0.0                                      
229                  RG1                  AYS5                 6544.96              70.23                74.75                2.78                 0.0                                      
230                  RG1                  CY87                 265.57               20.71                29.07                61.57                0.0                                      
231                  RG1                  CY1213               5810.78              53.45                62.47                8.15                 0.0                                      
232                  RG1                  AY54-13              207.10               90.00                43.10                2.30                 0.0                                      
233                  RG1                  AY108                2044.47              67.04                26.57                0.16                 0.0                                      
234                  RG1                  CY89                 682.53               31.96                26.76                41.33                0.0                                      
235                  RG1                  AY86                 263.47               90.00                26.57                4.77                 0.0                                      
236                  RG1                  AY142                718.50               90.00                24.05                0.44                 0.0                                      
237                  RG1                  AY133                1278.77              28.74                24.87                0.56                 0.0                                      
238                  RG1                  GY198                1213.92              51.58                39.54                1.37                 0.0                                      
239                  RG1                  AY55-8               749.65               90.00                83.78                16.59                0.0                                      
240                  RG1                  AY54-3               4124.91              90.00                458.01               12.66                0.0                                      
241                  RG1                  AY199                2855.16              90.00                37.55                7.82                 0.0                                      
242                  RG1                  AY98                 709.43               37.95                22.92                0.38                 0.0                                      
243                  RG1                  GY194                1461.84              68.87                40.95                1.70                 0.0                                      
244                  RG1                  DY384                1721.34              50.92                37.26                1.59                 0.0                                      
245                  RG1                  AY61                 2281.73              78.52                43.78                0.91                 0.0                                      
246                  RG1                  AY28                 3546.09              39.31                37.66                8.88                 0.0                                      
247                  RG1                  CY81                 180.67               20.00                18.08                13.84                0.0                                      
248                  RG1                  AY66                 187.88               90.00                12.78                0.48                 0.0                                      
249                  RG1                  BY189                3045.54              90.00                44.79                2.62                 0.0                                      
250                  RG1                  AY329                3508.90              69.60                38.74                11.91                0.0                                      
251                  RG1                  AY38                 1559.77              90.00                31.83                4.76                 0.0                                      
252                  RG1                  GY263                5246.45              76.61                55.42                0.70                 0.0                                      
253                  RG1                  GY234                3049.11              30.57                35.19                1.11                 0.0                                      
254                  RG1                  AY75-1               633.44               90.00                70.13                0.81                 0.0                                      
255                  RG1                  AY190-1              654.06               90.00                25.64                1.06                 0.0                                      
256                  RG1                  BY111                4765.71              59.24                54.77                8.72                 0.0                                      
257                  RG1                  AY67-2               1670.81              90.00                24.35                0.92                 0.0                                      
258                  RG1                  GY245                5411.88              87.26                54.46                1.38                 0.0                                      
259                  RG1                  AY145                2249.54              56.26                23.08                2.48                 0.0                                      
260                  RG1                  AY21                 5512.86              47.86                56.05                12.86                0.0                                      
261                  RG1                  CY125                219.60               20.13                23.93                9.74                 0.0                                      
262                  RG1                  BY179-2              821.93               33.02                18.64                3.27                 0.0                                      
263                  RG1                  AYS6                 5000.57              76.05                61.21                3.35                 0.0                                      
264                  RG1                  AY62                 3624.07              79.82                45.68                0.54                 0.0                                      
265                  RG1                  CY153                610.61               90.00                61.25                3.07                 0.0                                      
266                  RG1                  AY107                979.70               74.50                19.34                0.20                 0.0                                      
267                  RG1                  AY55-3               168.12               90.00                18.84                3.15                 0.0                                      
268                  RG1                  AYS11                6580.01              70.76                68.73                13.63                0.0                                      
269                  RG1                  AY96                 572.35               37.48                15.37                0.44                 0.0                                      
270                  RG1                  BY105                7777.81              49.04                85.03                11.85                0.0                                      
271                  RG1                  CY83                 270.57               40.72                28.77                1.19                 0.0                                      
272                  RG1                  BY122                4747.26              68.43                57.48                0.38                 0.0                                      
273                  RG1                  BY9                  2558.95              34.19                40.77                2.34                 0.0                                      
274                  RG1                  CY74T1               1418.14              20.50                24.63                0.67                 0.0                                      
275                  RG1                  BY121                7355.44              68.70                73.56                0.30                 0.0                                      
276                  RG1                  DY425                1582.16              82.57                22.69                2.14                 0.0                                      
277                  RG1                  AY149                601.58               80.54                30.24                1.59                 0.0                                      
278                  RG1                  AY191-1              550.48               90.00                23.81                0.93                 0.0                                      
279                  RG1                  AYS2                 7533.77              66.41                48.11                2.20                 0.0                                      
280                  RG1                  DY513                4431.92              29.10                47.27                1.06                 0.0                                      
281                  RG1                  AY54-15              1646.95              39.90                38.49                22.59                0.0                                      
282                  RG1                  AY112                2839.34              50.28                28.71                0.18                 0.0                                      
283                  RG1                  BY8                  2228.13              37.40                35.50                2.78                 0.0                                      
284                  RG1                  CY139                352.81               39.54                20.59                58.44                0.0                                      
285                  RG1                  GY238                1879.07              43.23                36.95                2.76                 0.0                                      
286                  RG1                  CY145-1              2164.58              16.92                28.52                3.53                 0.0                                      
287                  RG1                  BY27                 2764.51              70.37                40.17                6.12                 0.0                                      
288                  RG1                  AY69                 1217.38              90.00                24.02                3.40                 0.0                                      
289                  RG1                  AY104                999.84               35.97                19.91                3.56                 0.0                                      
290                  RG1                  AY25                 4299.99              73.41                53.05                1.03                 0.0                                      
291                  RG1                  BY21                 943.88               54.92                29.77                21.07                0.0                                      
292                  RG1                  AY86-7               3248.97              90.00                54.67                3.04                 0.0                                      
293                  RG1                  BY169                2086.68              52.29                41.93                0.89                 0.0                                      
294                  RG1                  BY130                2531.60              86.51                45.82                1.46                 0.0                                      
295                  RG1                  AY47                 2845.08              30.71                28.45                2.94                 0.0                                      
296                  RG1                  AY211                1187.38              41.27                46.84                20.52                0.0                                      
297                  RG1                  AY219                3713.45              58.96                43.54                1.22                 0.0                                      
298                  RG1                  BY176-3              3182.58              61.11                33.21                8.28                 0.0                                      
299                  RG1                  AY125                1837.96              65.48                20.91                3.23                 0.0                                      
300                  RG1                  AY54-14              492.46               90.00                12.18                4.63                 0.0                                      
301                  RG1                  AY119                1549.07              57.06                16.57                0.34                 0.0                                      
302                  RG1                  AY192                2942.06              90.00                38.26                0.85                 0.0                                      
303                  RG1                  CY69                 815.99               51.69                25.76                1.01                 0.0                                      
304                  RG1                  CY94                 186.87               74.61                9.19                 0.26                 0.0                                      
305                  RG1                  CY157-1              290.13               90.00                17.73                0.85                 0.0                                      
306                  RG1                  AY55-2               539.20               90.00                22.95                3.02                 0.0                                      
307                  RG1                  AY94                 500.12               39.52                57.22                0.38                 0.0                                      
308                  RG1                  CY163                907.14               73.06                92.25                0.37                 0.0                                      
309                  RG1                  AY322                952.37               90.00                33.22                0.51                 0.0                                      
310                  RG1                  CY108                551.81               20.00                21.52                58.67                0.0                                      
311                  RG1                  BY2                  1937.57              67.78                40.36                1.67                 0.0                                      
312                  RG1                  BY128X               5600.51              90.00                70.59                1.31                 0.0                                      
313                  RG1                  AY86-2               212.42               90.00                21.42                8.22                 0.0                                      
314                  RG1                  CY122                2899.98              68.35                29.46                13.86                0.0                                      
315                  RG1                  AY92                 679.99               90.00                72.11                0.37                 0.0                                      
316                  RG1                  DY433                1473.81              85.60                48.83                1.54                 0.0                                      
317                  RG1                  DY390                2274.72              72.61                41.27                2.19                 0.0                                      
318                  RG1                  AYS4                 8176.10              61.58                59.37                4.82                 0.0                                      
319                  RG1                  CY88                 149.77               76.86                9.16                 12.86                0.0                                      
320                  RG1                  BY126                4022.82              90.00                51.92                1.17                 0.0                                      
321                  RG1                  CY64T1               1330.68              20.42                23.17                0.36                 0.0                                      
322                  RG1                  AY51                 525.25               90.00                24.52                0.85                 0.0                                      
323                  RG1                  BY13                 1183.28              80.44                35.97                1.01                 0.0                                      
324                  RG1                  AY196                1341.21              90.00                30.63                0.18                 0.0                                      
325                  RG1                  CY130-2              361.85               40.03                39.42                1.01                 0.0                                      
326                  RG1                  BY128                5854.99              90.00                59.00                1.80                 0.0                                      
327                  RG1                  DY421                1400.11              52.46                34.32                1.58                 0.0                                      
328                  RG1                  CY145                2581.59              20.08                37.09                6.75                 0.0                                      
329                  RG1                  CY79                 183.36               62.18                8.95                 0.94                 0.0                                      
330                  RG1                  AY67                 1692.22              90.00                24.30                8.14                 0.0                                      
331                  RG1                  CY118                185.40               80.93                8.99                 0.98                 0.0                                      
332                  RG1                  BY191                499.87               90.00                22.02                1.61                 0.0                                      
333                  RG1                  AY123                1894.06              77.82                21.71                6.82                 0.0                                      
334                  RG1                  CY105                188.51               72.65                9.07                 0.44                 0.0                                      
335                  RG1                  GY213                4904.25              66.85                52.75                2.19                 0.0                                      
336                  RG1                  BY129                4326.42              90.00                49.51                0.45                 0.0                                      
337                  RG1                  AY323                2275.78              89.57                35.15                0.34                 0.0                                      
338                  RG1                  BY112                4039.30              60.17                45.51                8.00                 0.0                                      
339                  RG1                  AY146                1372.25              72.07                18.68                1.41                 0.0                                      
340                  RG1                  AY100                438.55               64.97                45.21                2.48                 0.0                                      
341                  RG1                  AY24-2               5027.24              22.58                50.73                8.83                 0.0                                      
342                  RG1                  AY212                1054.29              42.60                43.05                25.08                0.0                                      
343                  RG1                  AY26                 6309.69              57.83                77.84                3.96                 0.0                                      
344                  RG1                  CY82                 161.17               63.51                7.85                 1.06                 0.0                                      
345                  RG1                  GY200                1991.76              57.48                40.66                3.22                 0.0                                      
346                  RG1                  AY158                4823.95              28.32                49.50                3.48                 0.0                                      
347                  RG1                  CY86                 268.51               46.04                28.34                24.10                0.0                                      
348                  RG1                  GY247                1219.67              87.92                18.94                3.55                 0.0                                      
349                  RG1                  CY126                480.88               78.70                51.47                2.13                 0.0                                      
350                  RG1                  BY104                4436.18              48.36                47.74                10.12                0.0                                      
351                  RG1                  DY428                1202.63              79.23                20.78                2.43                 0.0                                      
352                  RG1                  AY117                2252.44              58.49                37.75                1.85                 0.0                                      
353                  RG1                  AY27                 5185.47              50.65                53.06                5.46                 0.0                                      
354                  RG1                  AY209                714.52               83.71                114.46               0.85                 0.0                                      
355                  RG1                  CY132                262.62               41.23                26.67                16.99                0.0                                      
356                  RG1                  AY42                 1124.57              80.70                28.19                1.84                 0.0                                      
357                  RG1                  AY75-2               595.57               90.00                75.09                1.52                 0.0                                      
358                  RG1                  CY130-1              1201.53              90.00                130.89               0.67                 0.0                                      
359                  RG1                  AY215                1963.33              65.35                35.40                1.03                 0.0                                      
360                  RG1                  AY120                3044.28              40.29                30.45                0.48                 0.0                                      
361                  RG1                  AY48                 2430.91              55.36                281.93               0.40                 0.0                                      
362                  RG1                  BY182                1614.06              32.86                39.86                2.47                 0.0                                      
363                  RG1                  CY71T1               1171.23              20.54                16.97                0.42                 0.0                                      
364                  RG1                  CY80                 348.05               41.29                41.19                1.05                 0.0                                      
365                  RG1                  AY106                1082.86              85.64                28.95                0.25                 0.0                                      
366                  RG1                  GY230                3826.78              28.98                39.14                1.81                 0.0                                      
367                  RG1                  AY324                3890.13              80.38                44.71                0.25                 0.0                                      
368                  RG1                  CY1206               6254.74              48.22                74.83                20.26                0.0                                      
369                  RG1                  AY50                 1323.84              87.86                30.70                0.68                 0.0                                      
370                  RG1                  CY1211               7566.20              46.02                76.33                6.44                 0.0                                      
371                  RG1                  AY66-1               952.55               90.00                21.89                1.46                 0.0                                      
372                  RG1                  DY386                1482.18              49.13                38.93                1.43                 0.0                                      
373                  RG1                  CY78                 171.59               20.00                18.77                5.14                 0.0                                      
374                  RG1                  FP10-1               620.02               90.00                19.35                0.43                 0.0                                      
375                  RG1                  AY328                3305.35              73.17                36.57                5.07                 0.0                                      
376                  RG1                  CY145-6              670.73               33.19                14.49                1.54                 0.0                                      
377                  RG1                  CY145-13             810.73               67.02                95.95                0.54                 0.0                                      
378                  RG1                  AY54-2               1223.18              90.00                135.81               0.87                 0.0                                      
379                  RG1                  BY175                1615.24              90.00                27.09                0.44                 0.0                                      
380                  RG1                  AY22                 4796.71              36.83                53.96                13.67                0.0                                      
381                  RG1                  DY522                2397.13              61.70                43.77                0.99                 0.0                                      
382                  RG1                  DY406                2179.50              90.00                27.19                1.70                 0.0                                      
383                  RG1                  AY127                2081.99              67.93                21.78                4.40                 0.0                                      
384                  RG1                  AY55-9               2499.99              90.00                26.35                2.77                 0.0                                      
385                  RG1                  AY110                2215.98              51.10                148.23               0.16                 0.0                                      
386                  RG1                  CY1208               7954.56              44.36                105.48               7.14                 0.0                                      
387                  RG1                  AY318                9912.28              66.36                117.59               3.41                 0.0                                      
388                  RG1                  DY437                2232.34              90.00                48.39                1.55                 0.0                                      
389                  RG1                  CY145-22             1073.01              90.00                29.43                1.13                 0.0                                      
390                  RG1                  BY187                3143.10              90.00                45.08                2.16                 0.0                                      
391                  RG1                  AYS9                 3690.47              82.36                37.65                9.66                 0.0                                      
392                  RG1                  CY149                1438.01              63.74                24.91                0.32                 0.0                                      
393                  RG1                  BY108                531.75               75.90                23.20                1.29                 0.0                                      
394                  RG1                  AY111                2869.47              52.15                21.92                0.15                 0.0                                      
395                  RG1                  AY193                2902.98              90.00                38.94                0.53                 0.0                                      
396                  RG1                  AYS15-1              2670.34              69.85                31.46                17.08                0.0                                      
397                  RG1                  BY26                 2173.98              77.10                31.66                12.21                0.0                                      
398                  RG1                  AY65                 1075.33              90.00                20.94                1.05                 0.0                                      
399                  RG1                  CY124                893.52               70.67                15.82                1.66                 0.0                                      
400                  RG1                  BY179                1660.43              30.30                27.33                29.17                0.0                                      
401                  RG1                  CY74                 760.74               20.00                23.17                17.20                0.0                                      
402                  RG1                  CY100                188.45               82.90                9.16                 0.52                 0.0                                      
403                  RG1                  AY121                1579.84              63.21                17.41                1.05                 0.0                                      
404                  RG1                  DY533                1471.09              55.89                167.50               4.95                 0.0                                      
405                  RG1                  BY180                3502.85              17.96                117.99               5.25                 0.0                                      
406                  RG1                  AYS7                 4625.96              80.23                46.35                0.53                 0.0                                      
407                  RG1                  AY87A                317.68               90.00                32.03                6.01                 0.0                                      
408                  RG1                  AY44                 1953.16              61.24                21.88                1.70                 0.0                                      
409                  RG1                  CY103                183.77               77.86                8.77                 0.59                 0.0                                      
410                  RG1                  BY114                1623.78              90.00                23.76                10.72                0.0                                      
411                  RG1                  BY116                2749.88              90.00                40.43                9.58                 0.0                                      
412                  RG1                  CY70                 324.09               88.19                9.71                 1.09                 0.0                                      
413                  RG1                  AY35                 5547.39              90.00                58.54                1.17                 0.0                                      
414                  RG1                  AY37                 3895.77              90.00                42.56                1.49                 0.0                                      
415                  RG1                  AYS12                6266.43              68.66                65.99                13.84                0.0                                      
416                  RG1                  AY49                 1550.19              60.86                26.72                0.23                 0.0                                      
417                  RG1                  AY53                 1357.75              90.00                22.54                2.95                 0.0                                      
418                  RG1                  AY114                3409.62              48.29                34.48                0.20                 0.0                                      
419                  RG1                  CY98                 880.51               30.43                31.19                37.23                0.0                                      
420                  RG1                  DY509                908.97               59.41                35.59                3.83                 0.0                                      
421                  RG1                  GY251                7773.96              86.85                122.34               0.58                 0.0                                      
422                  RG1                  AY159                3802.61              30.89                51.09                3.09                 0.0                                      
423                  RG1                  AY57-5               1793.15              90.00                23.53                1.40                 0.0                                      
424                  RG1                  AY216                2471.62              54.00                40.81                1.09                 0.0                                      
425                  RG1                  CY145-20             135.71               71.83                9.87                 2.07                 0.0                                      
426                  RG1                  CY145-15             528.07               46.24                84.46                0.58                 0.0                                      
427                  RG1                  DY515                2462.18              75.74                33.69                0.78                 0.0                                      
428                  RG1                  AY20                 5343.58              58.16                58.98                5.47                 0.0                                      
429                  RG1                  AY152                1003.70              33.44                19.14                3.56                 0.0                                      
430                  RG1                  AYS1                 17974.43             58.60                195.60               0.77                 0.0                                      
431                  RG1                  DY393                803.68               43.26                17.26                5.96                 0.0                                      
432                  RG1                  GY227                2223.26              22.55                22.75                0.70                 0.0                                      
433                  RG1                  CY76                 181.74               60.16                8.89                 0.72                 0.0                                      
434                  RG1                  BY112X               5188.81              52.18                58.30                8.57                 0.0                                      
435                  RG1                  GY242                3362.27              84.69                35.37                0.45                 0.0                                      
436                  RG1                  AY206                4038.48              90.00                41.70                0.57                 0.0                                      
437                  RG1                  BY174                953.25               87.59                22.26                0.47                 0.0                                      
438                  RG1                  GY240                3847.84              72.20                164.92               0.50                 0.0                                      
439                  RG1                  DY517                3419.62              82.57                54.75                0.74                 0.0                                      
440                  RG1                  AY210                1372.93              36.52                33.77                16.79                0.0                                      
441                  RG1                  AY82                 1065.88              90.00                22.83                1.48                 0.0                                      
442                  RG1                  BY3                  2355.88              80.50                35.76                1.41                 0.0                                      
443                  RG1                  AY330                1000.34              64.92                128.46               20.66                0.0                                      
444                  RG1                  CY113                687.92               36.97                29.90                40.42                0.0                                      
445                  RG1                  AY143                2672.58              72.83                36.15                0.93                 0.0                                      
446                  RG1                  CY71                 1373.96              57.23                29.34                3.37                 0.0                                      
447                  RG1                  DY431                1600.41              69.19                31.37                1.76                 0.0                                      
448                  RG1                  AY63                 1289.64              90.00                17.08                0.55                 0.0                                      
449                  RG1                  AY17                 527.15               53.09                68.63                0.90                 0.0                                      
450                  RG1                  CY75                 203.89               20.00                20.75                5.44                 0.0                                      
451                  RG1                  AY195                1331.42              90.00                30.11                0.35                 0.0                                      
452                  RG1                  AY95                 1296.15              28.18                18.49                0.44                 0.0                                      
453                  RG1                  AY101                541.19               50.78                55.79                1.83                 0.0                                      
454                  RG1                  AY116                2337.68              63.84                118.40               0.21                 0.0                                      
455                  RG1                  BY173                2708.45              70.61                34.84                0.35                 0.0                                      
456                  RG1                  CY73                 388.29               26.49                39.34                1.17                 0.0                                      
457                  RG1                  CY161                975.90               90.00                99.24                0.38                 0.0                                      
458                  RG1                  DY520                3449.58              66.83                55.16                0.87                 0.0                                      
459                  RG1                  AY200                2266.61              90.00                32.25                3.63                 0.0                                      
460                  RG1                  GY260                2202.48              84.62                23.42                0.26                 0.0                                      
461                  RG1                  CY93                 606.67               22.55                25.15                45.91                0.0                                      
462                  RG1                  BY5                  2565.97              82.91                37.28                1.88                 0.0                                      
463                  RG1                  FP9-1                613.78               90.00                19.27                0.42                 0.0                                      
464                  RG1                  AY157                4105.25              28.81                42.13                2.82                 0.0                                      
465                  RG1                  AY74A                177.93               90.00                19.70                3.22                 0.0                                      
466                  RG1                  AY134                1310.66              17.15                20.64                0.40                 0.0                                      
467                  RG1                  AY135                831.62               28.73                12.41                0.48                 0.0                                      
468                  RG1                  BY181                635.42               42.93                68.28                3.25                 0.0                                      
469                  RG1                  DY441                4719.38              33.95                73.26                6.82                 0.0                                      
470                  RG1                  AY93-3               307.86               74.35                32.65                0.46                 0.0                                      
471                  RG1                  AY321                2755.34              85.72                41.08                6.25                 0.0                                      
472                  RG1                  CY91                 164.42               79.63                8.27                 0.97                 0.0                                      
473                  RG1                  GY255                9053.48              72.37                126.10               1.30                 0.0                                      
474                  RG1                  BY177-4              3277.25              73.69                34.20                6.57                 0.0                                      
475                  RG1                  BY178A-3             2382.98              85.62                38.80                14.27                0.0                                      
476                  RG1                  CY1202               4185.26              55.38                53.58                19.24                0.0                                      
477                  RG1                  CY70T1               1763.92              16.70                179.38               0.39                 0.0                                      
478                  RG1                  CY165                3981.43              32.72                53.86                1.43                 0.0                                      
479                  RG1                  AY139                829.63               38.13                21.04                0.48                 0.0                                      
480                  RG1                  AY73                 8336.77              46.79                84.00                17.46                0.0                                      
481                  RG1                  DY392                2720.41              21.65                37.34                25.42                0.0                                      
482                  RG1                  AY203                2491.46              90.00                32.99                1.11                 0.0                                      
483                  RG1                  AY57-4               2971.69              90.00                30.24                2.64                 0.0                                      
484                  RG1                  AY52                 982.33               90.00                23.00                1.43                 0.0                                      
485                  RG1                  DY411                2192.22              90.00                32.80                6.83                 0.0                                      
486                  RG1                  AY68-1               2182.32              90.00                29.03                0.64                 0.0                                      
487                  RG1                  CY156                341.18               90.00                34.23                6.93                 0.0                                      
488                  RG1                  AY156                3147.00              36.67                45.59                2.99                 0.0                                      
489                  RG1                  AY148                832.25               90.00                20.51                1.73                 0.0                                      
490                  RG1                  BY188                3642.38              90.00                52.35                1.67                 0.0                                      
491                  RG1                  CY102                654.00               20.83                25.61                45.37                0.0                                      
492                  RG1                  AY190                2062.22              90.00                32.37                0.85                 0.0                                      
493                  RG1                  AY33                 6400.61              57.17                64.92                12.79                0.0                                      
494                  RG1                  BY170                5401.44              54.47                60.17                0.59                 0.0                                      
495                  RG1                  AY122                1918.41              53.14                21.53                3.85                 0.0                                      
496                  RG1                  CY68T1               2692.68              18.88                33.74                0.31                 0.0                                      
497                  RG1                  DY391                4976.47              56.46                73.78                13.15                0.0                                      
498                  RG1                  CY121                187.82               69.34                8.93                 1.22                 0.0                                      
499                  RG1                  BY11                 2560.60              35.37                42.19                2.61                 0.0                                      
500                  RG1                  BY177                2232.25              90.00                26.11                0.38                 0.0                                      
501                  RG1                  AY150                1067.10              42.77                24.33                3.15                 0.0                                      
502                  RG1                  GY207                1214.83              38.16                34.24                2.05                 0.0                                      
503                  RG1                  AY205FP              3692.28              90.00                167.93               0.68                 0.0                                      
504                  RG1                  BY15                 3408.10              64.67                35.19                0.36                 0.0                                      
505                  RG1                  AY77                 1032.02              77.27                26.70                2.25                 0.0                                      
506                  RG1                  AY97                 278.55               54.64                22.23                0.54                 0.0                                      
507                  RG1                  AY213                2242.44              36.69                49.47                24.97                0.0                                      
508                  RG1                  CY84                 192.04               20.00                19.37                58.88                0.0                                      
509                  RG1                  BY12                 1412.44              46.57                31.14                3.35                 0.0                                      
510                  RG1                  CY77                 395.89               36.65                41.56                1.78                 0.0                                      
511                  RG1                  AY197                2557.34              90.00                38.16                0.19                 0.0                                      
512                  RG1                  CY96                 653.26               22.43                26.66                41.99                0.0                                      
513                  RG1                  DY394                780.53               50.20                34.97                6.73                 0.0                                      
514                  RG1                  AY81                 514.91               79.58                53.08                0.57                 0.0                                      
515                  RG1                  BY123                2508.09              80.83                45.31                0.82                 0.0                                      
516                  RG1                  AY214                1795.85              52.88                51.05                2.21                 0.0                                      
517                  RG1                  AY194                2595.09              90.00                34.81                0.46                 0.0                                      
518                  RG1                  AY46                 2606.60              57.55                26.07                3.77                 0.0                                      
519                  RG1                  CY95                 988.56               31.36                33.88                33.02                0.0                                      
520                  RG1                  CY104                661.02               34.38                25.74                43.68                0.0                                      
521                  RG1                  BY4                  2768.81              77.00                39.72                1.62                 0.0                                      
522                  RG1                  AY201-1              554.32               90.00                23.41                0.41                 0.0                                      
523                  RG1                  AY30                 1639.99              64.82                38.91                13.27                0.0                                      
524                  RG1                  DY388                2382.87              61.88                47.35                2.42                 0.0                                      
525                  RG1                  三白荡                  1730.07              48.72                42.51                29.60                0.0                                      
526                  RG1                  三白荡                  28262.82             46.76                159.88               6.69                 0.0                                      
527                  RG1                  大渠荡                  23611.34             35.16                430.63               20.76                0.0                                      
528                  RG1                  大渠荡                  3434.35              10.13                61.80                15.84                0.0                                      
529                  RG1                  大渠荡                  5413.52              32.43                99.75                22.39                0.0                                      
530                  RG1                  大渠荡                  35777.45             35.85                292.66               23.69                0.0                                      
531                  RG1                  甘溪市河                 6456.32              63.57                108.66               1.52                 0.0                                      
532                  RG1                  洋砂荡                  12880.46             64.19                173.29               29.80                0.0                                      
533                  RG1                  甘溪市河                 579.78               33.97                87.45                95.75                0.0                                      
534                  RG1                  洋砂荡                  423.50               10.00                97.81                113.43               0.0                                      
535                  RG1                  甘溪市河                 367.51               21.36                23.39                26.49                0.0                                      
536                  RG1                  洋砂荡                  4497.06              80.66                116.87               33.20                0.0                                      
537                  RG1                  大洋港                  6125.14              25.32                83.10                19.70                0.0                                      
538                  RG1                  大洋港                  199.85               90.00                17.72                29.95                0.0                                      
539                  RG1                  大洋港                  3726.89              31.97                93.62                25.18                0.0                                      
540                  RG1                  大洋港                  190.08               90.00                16.99                35.47                0.0                                      
541                  RG1                  大洋港                  195.95               90.00                16.00                23.33                0.0                                      
542                  RG1                  洋砂荡                  2320.33              51.36                73.83                28.42                0.0                                      
543                  RG1                  洋砂荡                  1531.94              43.88                28.95                26.17                0.0                                      
544                  RG1                  洋砂荡                  613.21               56.84                62.70                7.39                 0.0                                      
545                  RG1                  洋砂荡                  530.70               37.43                56.10                10.31                0.0                                      
546                  RG1                  洋砂荡                  1863.41              11.93                62.07                31.55                0.0                                      
547                  RG1                  洋砂荡                  323.16               21.97                21.27                61.79                0.0                                      
548                  RG1                  行政河                  171.20               49.73                12.74                50.72                0.0                                      
549                  RG1                  行政河                  1265.95              75.88                130.24               68.64                0.0                                      
550                  RG1                  行政河                  233.86               90.00                20.07                94.62                0.0                                      
551                  RG1                  行政河                  160.22               90.00                17.63                79.19                0.0                                      
552                  RG1                  三白荡                  28911.88             31.71                358.00               15.84                0.0                                      
553                  RG1                  三白荡                  15804.92             22.65                191.74               14.72                0.0                                      
554                  RG1                  甘溪市河                 501.62               90.00                29.03                37.99                0.0                                      
555                  RG1                  甘溪市河                 915.82               74.68                35.47                42.94                0.0                                      
556                  RG1                  甘溪市河                 6230.33              52.71                120.60               24.05                0.0                                      
557                  RG1                  甘溪市河                 4374.48              85.89                107.91               30.09                0.0                                      
558                  RG1                  甘溪市河                 1553.01              80.89                152.85               53.56                0.0                                      
559                  RG1                  甘溪市河                 3065.68              79.05                204.24               85.83                0.0                                      
560                  RG1                  甘溪市河                 562.13               14.89                39.95                39.34                0.0                                      

[SUBAREAS]
;Subcat     Nimp     Nperv     Simp     Sperv     %Zero     RouteTo
;------------ ------------ ------------ ------------ ------------ ------------ ------------
1                    0.013                0.24                 0.05                 0.1                  25                   OUTLET              
2                    0.013                0.24                 0.05                 0.1                  25                   OUTLET              
3                    0.013                0.24                 0.05                 0.1                  25                   OUTLET              
4                    0.013                0.24                 0.05                 0.1                  25                   OUTLET              
5                    0.013                0.24                 0.05                 0.1                  25                   OUTLET              
6                    0.013                0.24                 0.05                 0.1                  25                   OUTLET              
7                    0.013                0.24                 0.05                 0.1                  25                   OUTLET              
8                    0.013                0.24                 0.05                 0.1                  25                   OUTLET              
9                    0.013                0.24                 0.05                 0.1                  25                   OUTLET              
10                   0.013                0.24                 0.05                 0.1                  25                   OUTLET              
11                   0.013                0.24                 0.05                 0.1                  25                   OUTLET              
12                   0.013                0.24                 0.05                 0.1                  25                   OUTLET              
13                   0.013                0.24                 0.05                 0.1                  25                   OUTLET              
14                   0.013                0.24                 0.05                 0.1                  25                   OUTLET              
15                   0.013                0.24                 0.05                 0.1                  25                   OUTLET              
16                   0.013                0.24                 0.05                 0.1                  25                   OUTLET              
17                   0.013                0.24                 0.05                 0.1                  25                   OUTLET              
18                   0.013                0.24                 0.05                 0.1                  25                   OUTLET              
19                   0.013                0.24                 0.05                 0.1                  25                   OUTLET              
20                   0.013                0.24                 0.05                 0.1                  25                   OUTLET              
21                   0.013                0.24                 0.05                 0.1                  25                   OUTLET              
22                   0.013                0.24                 0.05                 0.1                  25                   OUTLET              
23                   0.013                0.24                 0.05                 0.1                  25                   OUTLET              
24                   0.013                0.24                 0.05                 0.1                  25                   OUTLET              
25                   0.013                0.24                 0.05                 0.1                  25                   OUTLET              
26                   0.013                0.24                 0.05                 0.1                  25                   OUTLET              
27                   0.013                0.24                 0.05                 0.1                  25                   OUTLET              
28                   0.013                0.24                 0.05                 0.1                  25                   OUTLET              
29                   0.013                0.24                 0.05                 0.1                  25                   OUTLET              
30                   0.013                0.24                 0.05                 0.1                  25                   OUTLET              
31                   0.013                0.24                 0.05                 0.1                  25                   OUTLET              
32                   0.013                0.24                 0.05                 0.1                  25                   OUTLET              
33                   0.013                0.24                 0.05                 0.1                  25                   OUTLET              
34                   0.013                0.24                 0.05                 0.1                  25                   OUTLET              
35                   0.013                0.24                 0.05                 0.1                  25                   OUTLET              
36                   0.013                0.24                 0.05                 0.1                  25                   OUTLET              
37                   0.013                0.24                 0.05                 0.1                  25                   OUTLET              
38                   0.013                0.24                 0.05                 0.1                  25                   OUTLET              
39                   0.013                0.24                 0.05                 0.1                  25                   OUTLET              
40                   0.013                0.24                 0.05                 0.1                  25                   OUTLET              
41                   0.013                0.24                 0.05                 0.1                  25                   OUTLET              
42                   0.013                0.24                 0.05                 0.1                  25                   OUTLET              
43                   0.013                0.24                 0.05                 0.1                  25                   OUTLET              
44                   0.013                0.24                 0.05                 0.1                  25                   OUTLET              
45                   0.013                0.24                 0.05                 0.1                  25                   OUTLET              
46                   0.013                0.24                 0.05                 0.1                  25                   OUTLET              
47                   0.013                0.24                 0.05                 0.1                  25                   OUTLET              
48                   0.013                0.24                 0.05                 0.1                  25                   OUTLET              
49                   0.013                0.24                 0.05                 0.1                  25                   OUTLET              
50                   0.013                0.24                 0.05                 0.1                  25                   OUTLET              
51                   0.013                0.24                 0.05                 0.1                  25                   OUTLET              
52                   0.013                0.24                 0.05                 0.1                  25                   OUTLET              
53                   0.013                0.24                 0.05                 0.1                  25                   OUTLET              
54                   0.013                0.24                 0.05                 0.1                  25                   OUTLET              
55                   0.013                0.24                 0.05                 0.1                  25                   OUTLET              
56                   0.013                0.24                 0.05                 0.1                  25                   OUTLET              
57                   0.013                0.24                 0.05                 0.1                  25                   OUTLET              
58                   0.013                0.24                 0.05                 0.1                  25                   OUTLET              
59                   0.013                0.24                 0.05                 0.1                  25                   OUTLET              
60                   0.013                0.24                 0.05                 0.1                  25                   OUTLET              
61                   0.013                0.24                 0.05                 0.1                  25                   OUTLET              
62                   0.013                0.24                 0.05                 0.1                  25                   OUTLET              
63                   0.013                0.24                 0.05                 0.1                  25                   OUTLET              
64                   0.013                0.24                 0.05                 0.1                  25                   OUTLET              
65                   0.013                0.24                 0.05                 0.1                  25                   OUTLET              
66                   0.013                0.24                 0.05                 0.1                  25                   OUTLET              
67                   0.013                0.24                 0.05                 0.1                  25                   OUTLET              
68                   0.013                0.24                 0.05                 0.1                  25                   OUTLET              
69                   0.013                0.24                 0.05                 0.1                  25                   OUTLET              
70                   0.013                0.24                 0.05                 0.1                  25                   OUTLET              
71                   0.013                0.24                 0.05                 0.1                  25                   OUTLET              
72                   0.013                0.24                 0.05                 0.1                  25                   OUTLET              
73                   0.013                0.24                 0.05                 0.1                  25                   OUTLET              
74                   0.013                0.24                 0.05                 0.1                  25                   OUTLET              
75                   0.013                0.24                 0.05                 0.1                  25                   OUTLET              
76                   0.013                0.24                 0.05                 0.1                  25                   OUTLET              
77                   0.013                0.24                 0.05                 0.1                  25                   OUTLET              
78                   0.013                0.24                 0.05                 0.1                  25                   OUTLET              
79                   0.013                0.24                 0.05                 0.1                  25                   OUTLET              
80                   0.013                0.24                 0.05                 0.1                  25                   OUTLET              
81                   0.013                0.24                 0.05                 0.1                  25                   OUTLET              
82                   0.013                0.24                 0.05                 0.1                  25                   OUTLET              
83                   0.013                0.24                 0.05                 0.1                  25                   OUTLET              
84                   0.013                0.24                 0.05                 0.1                  25                   OUTLET              
85                   0.013                0.24                 0.05                 0.1                  25                   OUTLET              
86                   0.013                0.24                 0.05                 0.1                  25                   OUTLET              
87                   0.013                0.24                 0.05                 0.1                  25                   OUTLET              
88                   0.013                0.24                 0.05                 0.1                  25                   OUTLET              
89                   0.013                0.24                 0.05                 0.1                  25                   OUTLET              
90                   0.013                0.24                 0.05                 0.1                  25                   OUTLET              
91                   0.013                0.24                 0.05                 0.1                  25                   OUTLET              
92                   0.013                0.24                 0.05                 0.1                  25                   OUTLET              
93                   0.013                0.24                 0.05                 0.1                  25                   OUTLET              
94                   0.013                0.24                 0.05                 0.1                  25                   OUTLET              
95                   0.013                0.24                 0.05                 0.1                  25                   OUTLET              
96                   0.013                0.24                 0.05                 0.1                  25                   OUTLET              
97                   0.013                0.24                 0.05                 0.1                  25                   OUTLET              
98                   0.013                0.24                 0.05                 0.1                  25                   OUTLET              
99                   0.013                0.24                 0.05                 0.1                  25                   OUTLET              
100                  0.013                0.24                 0.05                 0.1                  25                   OUTLET              
101                  0.013                0.24                 0.05                 0.1                  25                   OUTLET              
102                  0.013                0.24                 0.05                 0.1                  25                   OUTLET              
103                  0.013                0.24                 0.05                 0.1                  25                   OUTLET              
104                  0.013                0.24                 0.05                 0.1                  25                   OUTLET              
105                  0.013                0.24                 0.05                 0.1                  25                   OUTLET              
106                  0.013                0.24                 0.05                 0.1                  25                   OUTLET              
107                  0.013                0.24                 0.05                 0.1                  25                   OUTLET              
108                  0.013                0.24                 0.05                 0.1                  25                   OUTLET              
109                  0.013                0.24                 0.05                 0.1                  25                   OUTLET              
110                  0.013                0.24                 0.05                 0.1                  25                   OUTLET              
111                  0.013                0.24                 0.05                 0.1                  25                   OUTLET              
112                  0.013                0.24                 0.05                 0.1                  25                   OUTLET              
113                  0.013                0.24                 0.05                 0.1                  25                   OUTLET              
114                  0.013                0.24                 0.05                 0.1                  25                   OUTLET              
115                  0.013                0.24                 0.05                 0.1                  25                   OUTLET              
116                  0.013                0.24                 0.05                 0.1                  25                   OUTLET              
117                  0.013                0.24                 0.05                 0.1                  25                   OUTLET              
118                  0.013                0.24                 0.05                 0.1                  25                   OUTLET              
119                  0.013                0.24                 0.05                 0.1                  25                   OUTLET              
120                  0.013                0.24                 0.05                 0.1                  25                   OUTLET              
121                  0.013                0.24                 0.05                 0.1                  25                   OUTLET              
122                  0.013                0.24                 0.05                 0.1                  25                   OUTLET              
123                  0.013                0.24                 0.05                 0.1                  25                   OUTLET              
124                  0.013                0.24                 0.05                 0.1                  25                   OUTLET              
125                  0.013                0.24                 0.05                 0.1                  25                   OUTLET              
126                  0.013                0.24                 0.05                 0.1                  25                   OUTLET              
127                  0.013                0.24                 0.05                 0.1                  25                   OUTLET              
128                  0.013                0.24                 0.05                 0.1                  25                   OUTLET              
129                  0.013                0.24                 0.05                 0.1                  25                   OUTLET              
130                  0.013                0.24                 0.05                 0.1                  25                   OUTLET              
131                  0.013                0.24                 0.05                 0.1                  25                   OUTLET              
132                  0.013                0.24                 0.05                 0.1                  25                   OUTLET              
133                  0.013                0.24                 0.05                 0.1                  25                   OUTLET              
134                  0.013                0.24                 0.05                 0.1                  25                   OUTLET              
135                  0.013                0.24                 0.05                 0.1                  25                   OUTLET              
136                  0.013                0.24                 0.05                 0.1                  25                   OUTLET              
137                  0.013                0.24                 0.05                 0.1                  25                   OUTLET              
138                  0.013                0.24                 0.05                 0.1                  25                   OUTLET              
139                  0.013                0.24                 0.05                 0.1                  25                   OUTLET              
140                  0.013                0.24                 0.05                 0.1                  25                   OUTLET              
141                  0.013                0.24                 0.05                 0.1                  25                   OUTLET              
142                  0.013                0.24                 0.05                 0.1                  25                   OUTLET              
143                  0.013                0.24                 0.05                 0.1                  25                   OUTLET              
144                  0.013                0.24                 0.05                 0.1                  25                   OUTLET              
145                  0.013                0.24                 0.05                 0.1                  25                   OUTLET              
146                  0.013                0.24                 0.05                 0.1                  25                   OUTLET              
147                  0.013                0.24                 0.05                 0.1                  25                   OUTLET              
148                  0.013                0.24                 0.05                 0.1                  25                   OUTLET              
149                  0.013                0.24                 0.05                 0.1                  25                   OUTLET              
150                  0.013                0.24                 0.05                 0.1                  25                   OUTLET              
151                  0.013                0.24                 0.05                 0.1                  25                   OUTLET              
152                  0.013                0.24                 0.05                 0.1                  25                   OUTLET              
153                  0.013                0.24                 0.05                 0.1                  25                   OUTLET              
154                  0.013                0.24                 0.05                 0.1                  25                   OUTLET              
155                  0.013                0.24                 0.05                 0.1                  25                   OUTLET              
156                  0.013                0.24                 0.05                 0.1                  25                   OUTLET              
157                  0.013                0.24                 0.05                 0.1                  25                   OUTLET              
158                  0.013                0.24                 0.05                 0.1                  25                   OUTLET              
159                  0.013                0.24                 0.05                 0.1                  25                   OUTLET              
160                  0.013                0.24                 0.05                 0.1                  25                   OUTLET              
161                  0.013                0.24                 0.05                 0.1                  25                   OUTLET              
162                  0.013                0.24                 0.05                 0.1                  25                   OUTLET              
163                  0.013                0.24                 0.05                 0.1                  25                   OUTLET              
164                  0.013                0.24                 0.05                 0.1                  25                   OUTLET              
165                  0.013                0.24                 0.05                 0.1                  25                   OUTLET              
166                  0.013                0.24                 0.05                 0.1                  25                   OUTLET              
167                  0.013                0.24                 0.05                 0.1                  25                   OUTLET              
168                  0.013                0.24                 0.05                 0.1                  25                   OUTLET              
169                  0.013                0.24                 0.05                 0.1                  25                   OUTLET              
170                  0.013                0.24                 0.05                 0.1                  25                   OUTLET              
171                  0.013                0.24                 0.05                 0.1                  25                   OUTLET              
172                  0.013                0.24                 0.05                 0.1                  25                   OUTLET              
173                  0.013                0.24                 0.05                 0.1                  25                   OUTLET              
174                  0.013                0.24                 0.05                 0.1                  25                   OUTLET              
175                  0.013                0.24                 0.05                 0.1                  25                   OUTLET              
176                  0.013                0.24                 0.05                 0.1                  25                   OUTLET              
177                  0.013                0.24                 0.05                 0.1                  25                   OUTLET              
178                  0.013                0.24                 0.05                 0.1                  25                   OUTLET              
179                  0.013                0.24                 0.05                 0.1                  25                   OUTLET              
180                  0.013                0.24                 0.05                 0.1                  25                   OUTLET              
181                  0.013                0.24                 0.05                 0.1                  25                   OUTLET              
182                  0.013                0.24                 0.05                 0.1                  25                   OUTLET              
183                  0.013                0.24                 0.05                 0.1                  25                   OUTLET              
184                  0.013                0.24                 0.05                 0.1                  25                   OUTLET              
185                  0.013                0.24                 0.05                 0.1                  25                   OUTLET              
186                  0.013                0.24                 0.05                 0.1                  25                   OUTLET              
187                  0.013                0.24                 0.05                 0.1                  25                   OUTLET              
188                  0.013                0.24                 0.05                 0.1                  25                   OUTLET              
189                  0.013                0.24                 0.05                 0.1                  25                   OUTLET              
190                  0.013                0.24                 0.05                 0.1                  25                   OUTLET              
191                  0.013                0.24                 0.05                 0.1                  25                   OUTLET              
192                  0.013                0.24                 0.05                 0.1                  25                   OUTLET              
193                  0.013                0.24                 0.05                 0.1                  25                   OUTLET              
194                  0.013                0.24                 0.05                 0.1                  25                   OUTLET              
195                  0.013                0.24                 0.05                 0.1                  25                   OUTLET              
196                  0.013                0.24                 0.05                 0.1                  25                   OUTLET              
197                  0.013                0.24                 0.05                 0.1                  25                   OUTLET              
198                  0.013                0.24                 0.05                 0.1                  25                   OUTLET              
199                  0.013                0.24                 0.05                 0.1                  25                   OUTLET              
200                  0.013                0.24                 0.05                 0.1                  25                   OUTLET              
201                  0.013                0.24                 0.05                 0.1                  25                   OUTLET              
202                  0.013                0.24                 0.05                 0.1                  25                   OUTLET              
203                  0.013                0.24                 0.05                 0.1                  25                   OUTLET              
204                  0.013                0.24                 0.05                 0.1                  25                   OUTLET              
205                  0.013                0.24                 0.05                 0.1                  25                   OUTLET              
206                  0.013                0.24                 0.05                 0.1                  25                   OUTLET              
207                  0.013                0.24                 0.05                 0.1                  25                   OUTLET              
208                  0.013                0.24                 0.05                 0.1                  25                   OUTLET              
209                  0.013                0.24                 0.05                 0.1                  25                   OUTLET              
210                  0.013                0.24                 0.05                 0.1                  25                   OUTLET              
211                  0.013                0.24                 0.05                 0.1                  25                   OUTLET              
212                  0.013                0.24                 0.05                 0.1                  25                   OUTLET              
213                  0.013                0.24                 0.05                 0.1                  25                   OUTLET              
214                  0.013                0.24                 0.05                 0.1                  25                   OUTLET              
215                  0.013                0.24                 0.05                 0.1                  25                   OUTLET              
216                  0.013                0.24                 0.05                 0.1                  25                   OUTLET              
217                  0.013                0.24                 0.05                 0.1                  25                   OUTLET              
218                  0.013                0.24                 0.05                 0.1                  25                   OUTLET              
219                  0.013                0.24                 0.05                 0.1                  25                   OUTLET              
220                  0.013                0.24                 0.05                 0.1                  25                   OUTLET              
221                  0.013                0.24                 0.05                 0.1                  25                   OUTLET              
222                  0.013                0.24                 0.05                 0.1                  25                   OUTLET              
223                  0.013                0.24                 0.05                 0.1                  25                   OUTLET              
224                  0.013                0.24                 0.05                 0.1                  25                   OUTLET              
225                  0.013                0.24                 0.05                 0.1                  25                   OUTLET              
226                  0.013                0.24                 0.05                 0.1                  25                   OUTLET              
227                  0.013                0.24                 0.05                 0.1                  25                   OUTLET              
228                  0.013                0.24                 0.05                 0.1                  25                   OUTLET              
229                  0.013                0.24                 0.05                 0.1                  25                   OUTLET              
230                  0.013                0.24                 0.05                 0.1                  25                   OUTLET              
231                  0.013                0.24                 0.05                 0.1                  25                   OUTLET              
232                  0.013                0.24                 0.05                 0.1                  25                   OUTLET              
233                  0.013                0.24                 0.05                 0.1                  25                   OUTLET              
234                  0.013                0.24                 0.05                 0.1                  25                   OUTLET              
235                  0.013                0.24                 0.05                 0.1                  25                   OUTLET              
236                  0.013                0.24                 0.05                 0.1                  25                   OUTLET              
237                  0.013                0.24                 0.05                 0.1                  25                   OUTLET              
238                  0.013                0.24                 0.05                 0.1                  25                   OUTLET              
239                  0.013                0.24                 0.05                 0.1                  25                   OUTLET              
240                  0.013                0.24                 0.05                 0.1                  25                   OUTLET              
241                  0.013                0.24                 0.05                 0.1                  25                   OUTLET              
242                  0.013                0.24                 0.05                 0.1                  25                   OUTLET              
243                  0.013                0.24                 0.05                 0.1                  25                   OUTLET              
244                  0.013                0.24                 0.05                 0.1                  25                   OUTLET              
245                  0.013                0.24                 0.05                 0.1                  25                   OUTLET              
246                  0.013                0.24                 0.05                 0.1                  25                   OUTLET              
247                  0.013                0.24                 0.05                 0.1                  25                   OUTLET              
248                  0.013                0.24                 0.05                 0.1                  25                   OUTLET              
249                  0.013                0.24                 0.05                 0.1                  25                   OUTLET              
250                  0.013                0.24                 0.05                 0.1                  25                   OUTLET              
251                  0.013                0.24                 0.05                 0.1                  25                   OUTLET              
252                  0.013                0.24                 0.05                 0.1                  25                   OUTLET              
253                  0.013                0.24                 0.05                 0.1                  25                   OUTLET              
254                  0.013                0.24                 0.05                 0.1                  25                   OUTLET              
255                  0.013                0.24                 0.05                 0.1                  25                   OUTLET              
256                  0.013                0.24                 0.05                 0.1                  25                   OUTLET              
257                  0.013                0.24                 0.05                 0.1                  25                   OUTLET              
258                  0.013                0.24                 0.05                 0.1                  25                   OUTLET              
259                  0.013                0.24                 0.05                 0.1                  25                   OUTLET              
260                  0.013                0.24                 0.05                 0.1                  25                   OUTLET              
261                  0.013                0.24                 0.05                 0.1                  25                   OUTLET              
262                  0.013                0.24                 0.05                 0.1                  25                   OUTLET              
263                  0.013                0.24                 0.05                 0.1                  25                   OUTLET              
264                  0.013                0.24                 0.05                 0.1                  25                   OUTLET              
265                  0.013                0.24                 0.05                 0.1                  25                   OUTLET              
266                  0.013                0.24                 0.05                 0.1                  25                   OUTLET              
267                  0.013                0.24                 0.05                 0.1                  25                   OUTLET              
268                  0.013                0.24                 0.05                 0.1                  25                   OUTLET              
269                  0.013                0.24                 0.05                 0.1                  25                   OUTLET              
270                  0.013                0.24                 0.05                 0.1                  25                   OUTLET              
271                  0.013                0.24                 0.05                 0.1                  25                   OUTLET              
272                  0.013                0.24                 0.05                 0.1                  25                   OUTLET              
273                  0.013                0.24                 0.05                 0.1                  25                   OUTLET              
274                  0.013                0.24                 0.05                 0.1                  25                   OUTLET              
275                  0.013                0.24                 0.05                 0.1                  25                   OUTLET              
276                  0.013                0.24                 0.05                 0.1                  25                   OUTLET              
277                  0.013                0.24                 0.05                 0.1                  25                   OUTLET              
278                  0.013                0.24                 0.05                 0.1                  25                   OUTLET              
279                  0.013                0.24                 0.05                 0.1                  25                   OUTLET              
280                  0.013                0.24                 0.05                 0.1                  25                   OUTLET              
281                  0.013                0.24                 0.05                 0.1                  25                   OUTLET              
282                  0.013                0.24                 0.05                 0.1                  25                   OUTLET              
283                  0.013                0.24                 0.05                 0.1                  25                   OUTLET              
284                  0.013                0.24                 0.05                 0.1                  25                   OUTLET              
285                  0.013                0.24                 0.05                 0.1                  25                   OUTLET              
286                  0.013                0.24                 0.05                 0.1                  25                   OUTLET              
287                  0.013                0.24                 0.05                 0.1                  25                   OUTLET              
288                  0.013                0.24                 0.05                 0.1                  25                   OUTLET              
289                  0.013                0.24                 0.05                 0.1                  25                   OUTLET              
290                  0.013                0.24                 0.05                 0.1                  25                   OUTLET              
291                  0.013                0.24                 0.05                 0.1                  25                   OUTLET              
292                  0.013                0.24                 0.05                 0.1                  25                   OUTLET              
293                  0.013                0.24                 0.05                 0.1                  25                   OUTLET              
294                  0.013                0.24                 0.05                 0.1                  25                   OUTLET              
295                  0.013                0.24                 0.05                 0.1                  25                   OUTLET              
296                  0.013                0.24                 0.05                 0.1                  25                   OUTLET              
297                  0.013                0.24                 0.05                 0.1                  25                   OUTLET              
298                  0.013                0.24                 0.05                 0.1                  25                   OUTLET              
299                  0.013                0.24                 0.05                 0.1                  25                   OUTLET              
300                  0.013                0.24                 0.05                 0.1                  25                   OUTLET              
301                  0.013                0.24                 0.05                 0.1                  25                   OUTLET              
302                  0.013                0.24                 0.05                 0.1                  25                   OUTLET              
303                  0.013                0.24                 0.05                 0.1                  25                   OUTLET              
304                  0.013                0.24                 0.05                 0.1                  25                   OUTLET              
305                  0.013                0.24                 0.05                 0.1                  25                   OUTLET              
306                  0.013                0.24                 0.05                 0.1                  25                   OUTLET              
307                  0.013                0.24                 0.05                 0.1                  25                   OUTLET              
308                  0.013                0.24                 0.05                 0.1                  25                   OUTLET              
309                  0.013                0.24                 0.05                 0.1                  25                   OUTLET              
310                  0.013                0.24                 0.05                 0.1                  25                   OUTLET              
311                  0.013                0.24                 0.05                 0.1                  25                   OUTLET              
312                  0.013                0.24                 0.05                 0.1                  25                   OUTLET              
313                  0.013                0.24                 0.05                 0.1                  25                   OUTLET              
314                  0.013                0.24                 0.05                 0.1                  25                   OUTLET              
315                  0.013                0.24                 0.05                 0.1                  25                   OUTLET              
316                  0.013                0.24                 0.05                 0.1                  25                   OUTLET              
317                  0.013                0.24                 0.05                 0.1                  25                   OUTLET              
318                  0.013                0.24                 0.05                 0.1                  25                   OUTLET              
319                  0.013                0.24                 0.05                 0.1                  25                   OUTLET              
320                  0.013                0.24                 0.05                 0.1                  25                   OUTLET              
321                  0.013                0.24                 0.05                 0.1                  25                   OUTLET              
322                  0.013                0.24                 0.05                 0.1                  25                   OUTLET              
323                  0.013                0.24                 0.05                 0.1                  25                   OUTLET              
324                  0.013                0.24                 0.05                 0.1                  25                   OUTLET              
325                  0.013                0.24                 0.05                 0.1                  25                   OUTLET              
326                  0.013                0.24                 0.05                 0.1                  25                   OUTLET              
327                  0.013                0.24                 0.05                 0.1                  25                   OUTLET              
328                  0.013                0.24                 0.05                 0.1                  25                   OUTLET              
329                  0.013                0.24                 0.05                 0.1                  25                   OUTLET              
330                  0.013                0.24                 0.05                 0.1                  25                   OUTLET              
331                  0.013                0.24                 0.05                 0.1                  25                   OUTLET              
332                  0.013                0.24                 0.05                 0.1                  25                   OUTLET              
333                  0.013                0.24                 0.05                 0.1                  25                   OUTLET              
334                  0.013                0.24                 0.05                 0.1                  25                   OUTLET              
335                  0.013                0.24                 0.05                 0.1                  25                   OUTLET              
336                  0.013                0.24                 0.05                 0.1                  25                   OUTLET              
337                  0.013                0.24                 0.05                 0.1                  25                   OUTLET              
338                  0.013                0.24                 0.05                 0.1                  25                   OUTLET              
339                  0.013                0.24                 0.05                 0.1                  25                   OUTLET              
340                  0.013                0.24                 0.05                 0.1                  25                   OUTLET              
341                  0.013                0.24                 0.05                 0.1                  25                   OUTLET              
342                  0.013                0.24                 0.05                 0.1                  25                   OUTLET              
343                  0.013                0.24                 0.05                 0.1                  25                   OUTLET              
344                  0.013                0.24                 0.05                 0.1                  25                   OUTLET              
345                  0.013                0.24                 0.05                 0.1                  25                   OUTLET              
346                  0.013                0.24                 0.05                 0.1                  25                   OUTLET              
347                  0.013                0.24                 0.05                 0.1                  25                   OUTLET              
348                  0.013                0.24                 0.05                 0.1                  25                   OUTLET              
349                  0.013                0.24                 0.05                 0.1                  25                   OUTLET              
350                  0.013                0.24                 0.05                 0.1                  25                   OUTLET              
351                  0.013                0.24                 0.05                 0.1                  25                   OUTLET              
352                  0.013                0.24                 0.05                 0.1                  25                   OUTLET              
353                  0.013                0.24                 0.05                 0.1                  25                   OUTLET              
354                  0.013                0.24                 0.05                 0.1                  25                   OUTLET              
355                  0.013                0.24                 0.05                 0.1                  25                   OUTLET              
356                  0.013                0.24                 0.05                 0.1                  25                   OUTLET              
357                  0.013                0.24                 0.05                 0.1                  25                   OUTLET              
358                  0.013                0.24                 0.05                 0.1                  25                   OUTLET              
359                  0.013                0.24                 0.05                 0.1                  25                   OUTLET              
360                  0.013                0.24                 0.05                 0.1                  25                   OUTLET              
361                  0.013                0.24                 0.05                 0.1                  25                   OUTLET              
362                  0.013                0.24                 0.05                 0.1                  25                   OUTLET              
363                  0.013                0.24                 0.05                 0.1                  25                   OUTLET              
364                  0.013                0.24                 0.05                 0.1                  25                   OUTLET              
365                  0.013                0.24                 0.05                 0.1                  25                   OUTLET              
366                  0.013                0.24                 0.05                 0.1                  25                   OUTLET              
367                  0.013                0.24                 0.05                 0.1                  25                   OUTLET              
368                  0.013                0.24                 0.05                 0.1                  25                   OUTLET              
369                  0.013                0.24                 0.05                 0.1                  25                   OUTLET              
370                  0.013                0.24                 0.05                 0.1                  25                   OUTLET              
371                  0.013                0.24                 0.05                 0.1                  25                   OUTLET              
372                  0.013                0.24                 0.05                 0.1                  25                   OUTLET              
373                  0.013                0.24                 0.05                 0.1                  25                   OUTLET              
374                  0.013                0.24                 0.05                 0.1                  25                   OUTLET              
375                  0.013                0.24                 0.05                 0.1                  25                   OUTLET              
376                  0.013                0.24                 0.05                 0.1                  25                   OUTLET              
377                  0.013                0.24                 0.05                 0.1                  25                   OUTLET              
378                  0.013                0.24                 0.05                 0.1                  25                   OUTLET              
379                  0.013                0.24                 0.05                 0.1                  25                   OUTLET              
380                  0.013                0.24                 0.05                 0.1                  25                   OUTLET              
381                  0.013                0.24                 0.05                 0.1                  25                   OUTLET              
382                  0.013                0.24                 0.05                 0.1                  25                   OUTLET              
383                  0.013                0.24                 0.05                 0.1                  25                   OUTLET              
384                  0.013                0.24                 0.05                 0.1                  25                   OUTLET              
385                  0.013                0.24                 0.05                 0.1                  25                   OUTLET              
386                  0.013                0.24                 0.05                 0.1                  25                   OUTLET              
387                  0.013                0.24                 0.05                 0.1                  25                   OUTLET              
388                  0.013                0.24                 0.05                 0.1                  25                   OUTLET              
389                  0.013                0.24                 0.05                 0.1                  25                   OUTLET              
390                  0.013                0.24                 0.05                 0.1                  25                   OUTLET              
391                  0.013                0.24                 0.05                 0.1                  25                   OUTLET              
392                  0.013                0.24                 0.05                 0.1                  25                   OUTLET              
393                  0.013                0.24                 0.05                 0.1                  25                   OUTLET              
394                  0.013                0.24                 0.05                 0.1                  25                   OUTLET              
395                  0.013                0.24                 0.05                 0.1                  25                   OUTLET              
396                  0.013                0.24                 0.05                 0.1                  25                   OUTLET              
397                  0.013                0.24                 0.05                 0.1                  25                   OUTLET              
398                  0.013                0.24                 0.05                 0.1                  25                   OUTLET              
399                  0.013                0.24                 0.05                 0.1                  25                   OUTLET              
400                  0.013                0.24                 0.05                 0.1                  25                   OUTLET              
401                  0.013                0.24                 0.05                 0.1                  25                   OUTLET              
402                  0.013                0.24                 0.05                 0.1                  25                   OUTLET              
403                  0.013                0.24                 0.05                 0.1                  25                   OUTLET              
404                  0.013                0.24                 0.05                 0.1                  25                   OUTLET              
405                  0.013                0.24                 0.05                 0.1                  25                   OUTLET              
406                  0.013                0.24                 0.05                 0.1                  25                   OUTLET              
407                  0.013                0.24                 0.05                 0.1                  25                   OUTLET              
408                  0.013                0.24                 0.05                 0.1                  25                   OUTLET              
409                  0.013                0.24                 0.05                 0.1                  25                   OUTLET              
410                  0.013                0.24                 0.05                 0.1                  25                   OUTLET              
411                  0.013                0.24                 0.05                 0.1                  25                   OUTLET              
412                  0.013                0.24                 0.05                 0.1                  25                   OUTLET              
413                  0.013                0.24                 0.05                 0.1                  25                   OUTLET              
414                  0.013                0.24                 0.05                 0.1                  25                   OUTLET              
415                  0.013                0.24                 0.05                 0.1                  25                   OUTLET              
416                  0.013                0.24                 0.05                 0.1                  25                   OUTLET              
417                  0.013                0.24                 0.05                 0.1                  25                   OUTLET              
418                  0.013                0.24                 0.05                 0.1                  25                   OUTLET              
419                  0.013                0.24                 0.05                 0.1                  25                   OUTLET              
420                  0.013                0.24                 0.05                 0.1                  25                   OUTLET              
421                  0.013                0.24                 0.05                 0.1                  25                   OUTLET              
422                  0.013                0.24                 0.05                 0.1                  25                   OUTLET              
423                  0.013                0.24                 0.05                 0.1                  25                   OUTLET              
424                  0.013                0.24                 0.05                 0.1                  25                   OUTLET              
425                  0.013                0.24                 0.05                 0.1                  25                   OUTLET              
426                  0.013                0.24                 0.05                 0.1                  25                   OUTLET              
427                  0.013                0.24                 0.05                 0.1                  25                   OUTLET              
428                  0.013                0.24                 0.05                 0.1                  25                   OUTLET              
429                  0.013                0.24                 0.05                 0.1                  25                   OUTLET              
430                  0.013                0.24                 0.05                 0.1                  25                   OUTLET              
431                  0.013                0.24                 0.05                 0.1                  25                   OUTLET              
432                  0.013                0.24                 0.05                 0.1                  25                   OUTLET              
433                  0.013                0.24                 0.05                 0.1                  25                   OUTLET              
434                  0.013                0.24                 0.05                 0.1                  25                   OUTLET              
435                  0.013                0.24                 0.05                 0.1                  25                   OUTLET              
436                  0.013                0.24                 0.05                 0.1                  25                   OUTLET              
437                  0.013                0.24                 0.05                 0.1                  25                   OUTLET              
438                  0.013                0.24                 0.05                 0.1                  25                   OUTLET              
439                  0.013                0.24                 0.05                 0.1                  25                   OUTLET              
440                  0.013                0.24                 0.05                 0.1                  25                   OUTLET              
441                  0.013                0.24                 0.05                 0.1                  25                   OUTLET              
442                  0.013                0.24                 0.05                 0.1                  25                   OUTLET              
443                  0.013                0.24                 0.05                 0.1                  25                   OUTLET              
444                  0.013                0.24                 0.05                 0.1                  25                   OUTLET              
445                  0.013                0.24                 0.05                 0.1                  25                   OUTLET              
446                  0.013                0.24                 0.05                 0.1                  25                   OUTLET              
447                  0.013                0.24                 0.05                 0.1                  25                   OUTLET              
448                  0.013                0.24                 0.05                 0.1                  25                   OUTLET              
449                  0.013                0.24                 0.05                 0.1                  25                   OUTLET              
450                  0.013                0.24                 0.05                 0.1                  25                   OUTLET              
451                  0.013                0.24                 0.05                 0.1                  25                   OUTLET              
452                  0.013                0.24                 0.05                 0.1                  25                   OUTLET              
453                  0.013                0.24                 0.05                 0.1                  25                   OUTLET              
454                  0.013                0.24                 0.05                 0.1                  25                   OUTLET              
455                  0.013                0.24                 0.05                 0.1                  25                   OUTLET              
456                  0.013                0.24                 0.05                 0.1                  25                   OUTLET              
457                  0.013                0.24                 0.05                 0.1                  25                   OUTLET              
458                  0.013                0.24                 0.05                 0.1                  25                   OUTLET              
459                  0.013                0.24                 0.05                 0.1                  25                   OUTLET              
460                  0.013                0.24                 0.05                 0.1                  25                   OUTLET              
461                  0.013                0.24                 0.05                 0.1                  25                   OUTLET              
462                  0.013                0.24                 0.05                 0.1                  25                   OUTLET              
463                  0.013                0.24                 0.05                 0.1                  25                   OUTLET              
464                  0.013                0.24                 0.05                 0.1                  25                   OUTLET              
465                  0.013                0.24                 0.05                 0.1                  25                   OUTLET              
466                  0.013                0.24                 0.05                 0.1                  25                   OUTLET              
467                  0.013                0.24                 0.05                 0.1                  25                   OUTLET              
468                  0.013                0.24                 0.05                 0.1                  25                   OUTLET              
469                  0.013                0.24                 0.05                 0.1                  25                   OUTLET              
470                  0.013                0.24                 0.05                 0.1                  25                   OUTLET              
471                  0.013                0.24                 0.05                 0.1                  25                   OUTLET              
472                  0.013                0.24                 0.05                 0.1                  25                   OUTLET              
473                  0.013                0.24                 0.05                 0.1                  25                   OUTLET              
474                  0.013                0.24                 0.05                 0.1                  25                   OUTLET              
475                  0.013                0.24                 0.05                 0.1                  25                   OUTLET              
476                  0.013                0.24                 0.05                 0.1                  25                   OUTLET              
477                  0.013                0.24                 0.05                 0.1                  25                   OUTLET              
478                  0.013                0.24                 0.05                 0.1                  25                   OUTLET              
479                  0.013                0.24                 0.05                 0.1                  25                   OUTLET              
480                  0.013                0.24                 0.05                 0.1                  25                   OUTLET              
481                  0.013                0.24                 0.05                 0.1                  25                   OUTLET              
482                  0.013                0.24                 0.05                 0.1                  25                   OUTLET              
483                  0.013                0.24                 0.05                 0.1                  25                   OUTLET              
484                  0.013                0.24                 0.05                 0.1                  25                   OUTLET              
485                  0.013                0.24                 0.05                 0.1                  25                   OUTLET              
486                  0.013                0.24                 0.05                 0.1                  25                   OUTLET              
487                  0.013                0.24                 0.05                 0.1                  25                   OUTLET              
488                  0.013                0.24                 0.05                 0.1                  25                   OUTLET              
489                  0.013                0.24                 0.05                 0.1                  25                   OUTLET              
490                  0.013                0.24                 0.05                 0.1                  25                   OUTLET              
491                  0.013                0.24                 0.05                 0.1                  25                   OUTLET              
492                  0.013                0.24                 0.05                 0.1                  25                   OUTLET              
493                  0.013                0.24                 0.05                 0.1                  25                   OUTLET              
494                  0.013                0.24                 0.05                 0.1                  25                   OUTLET              
495                  0.013                0.24                 0.05                 0.1                  25                   OUTLET              
496                  0.013                0.24                 0.05                 0.1                  25                   OUTLET              
497                  0.013                0.24                 0.05                 0.1                  25                   OUTLET              
498                  0.013                0.24                 0.05                 0.1                  25                   OUTLET              
499                  0.013                0.24                 0.05                 0.1                  25                   OUTLET              
500                  0.013                0.24                 0.05                 0.1                  25                   OUTLET              
501                  0.013                0.24                 0.05                 0.1                  25                   OUTLET              
502                  0.013                0.24                 0.05                 0.1                  25                   OUTLET              
503                  0.013                0.24                 0.05                 0.1                  25                   OUTLET              
504                  0.013                0.24                 0.05                 0.1                  25                   OUTLET              
505                  0.013                0.24                 0.05                 0.1                  25                   OUTLET              
506                  0.013                0.24                 0.05                 0.1                  25                   OUTLET              
507                  0.013                0.24                 0.05                 0.1                  25                   OUTLET              
508                  0.013                0.24                 0.05                 0.1                  25                   OUTLET              
509                  0.013                0.24                 0.05                 0.1                  25                   OUTLET              
510                  0.013                0.24                 0.05                 0.1                  25                   OUTLET              
511                  0.013                0.24                 0.05                 0.1                  25                   OUTLET              
512                  0.013                0.24                 0.05                 0.1                  25                   OUTLET              
513                  0.013                0.24                 0.05                 0.1                  25                   OUTLET              
514                  0.013                0.24                 0.05                 0.1                  25                   OUTLET              
515                  0.013                0.24                 0.05                 0.1                  25                   OUTLET              
516                  0.013                0.24                 0.05                 0.1                  25                   OUTLET              
517                  0.013                0.24                 0.05                 0.1                  25                   OUTLET              
518                  0.013                0.24                 0.05                 0.1                  25                   OUTLET              
519                  0.013                0.24                 0.05                 0.1                  25                   OUTLET              
520                  0.013                0.24                 0.05                 0.1                  25                   OUTLET              
521                  0.013                0.24                 0.05                 0.1                  25                   OUTLET              
522                  0.013                0.24                 0.05                 0.1                  25                   OUTLET              
523                  0.013                0.24                 0.05                 0.1                  25                   OUTLET              
524                  0.013                0.24                 0.05                 0.1                  25                   OUTLET              
525                  0.013                0.24                 0.05                 0.1                  25                   OUTLET              
526                  0.013                0.24                 0.05                 0.1                  25                   OUTLET              
527                  0.013                0.24                 0.05                 0.1                  25                   OUTLET              
528                  0.013                0.24                 0.05                 0.1                  25                   OUTLET              
529                  0.013                0.24                 0.05                 0.1                  25                   OUTLET              
530                  0.013                0.24                 0.05                 0.1                  25                   OUTLET              
531                  0.013                0.24                 0.05                 0.1                  25                   OUTLET              
532                  0.013                0.24                 0.05                 0.1                  25                   OUTLET              
533                  0.013                0.24                 0.05                 0.1                  25                   OUTLET              
534                  0.013                0.24                 0.05                 0.1                  25                   OUTLET              
535                  0.013                0.24                 0.05                 0.1                  25                   OUTLET              
536                  0.013                0.24                 0.05                 0.1                  25                   OUTLET              
537                  0.013                0.24                 0.05                 0.1                  25                   OUTLET              
538                  0.013                0.24                 0.05                 0.1                  25                   OUTLET              
539                  0.013                0.24                 0.05                 0.1                  25                   OUTLET              
540                  0.013                0.24                 0.05                 0.1                  25                   OUTLET              
541                  0.013                0.24                 0.05                 0.1                  25                   OUTLET              
542                  0.013                0.24                 0.05                 0.1                  25                   OUTLET              
543                  0.013                0.24                 0.05                 0.1                  25                   OUTLET              
544                  0.013                0.24                 0.05                 0.1                  25                   OUTLET              
545                  0.013                0.24                 0.05                 0.1                  25                   OUTLET              
546                  0.013                0.24                 0.05                 0.1                  25                   OUTLET              
547                  0.013                0.24                 0.05                 0.1                  25                   OUTLET              
548                  0.013                0.24                 0.05                 0.1                  25                   OUTLET              
549                  0.013                0.24                 0.05                 0.1                  25                   OUTLET              
550                  0.013                0.24                 0.05                 0.1                  25                   OUTLET              
551                  0.013                0.24                 0.05                 0.1                  25                   OUTLET              
552                  0.013                0.24                 0.05                 0.1                  25                   OUTLET              
553                  0.013                0.24                 0.05                 0.1                  25                   OUTLET              
554                  0.013                0.24                 0.05                 0.1                  25                   OUTLET              
555                  0.013                0.24                 0.05                 0.1                  25                   OUTLET              
556                  0.013                0.24                 0.05                 0.1                  25                   OUTLET              
557                  0.013                0.24                 0.05                 0.1                  25                   OUTLET              
558                  0.013                0.24                 0.05                 0.1                  25                   OUTLET              
559                  0.013                0.24                 0.05                 0.1                  25                   OUTLET              
560                  0.013                0.24                 0.05                 0.1                  25                   OUTLET              

[INFILTRATION]
;Subcatchment        MaxRate             MinRate             Decay               DryTime
;-------------------- ------------------- ------------------- ------------------- -------------------
1                    0.50                 0.20                 2.0                  1.0                 
2                    0.50                 0.20                 2.0                  1.0                 
3                    0.50                 0.20                 2.0                  1.0                 
4                    0.50                 0.20                 2.0                  1.0                 
5                    0.50                 0.20                 2.0                  1.0                 
6                    0.50                 0.20                 2.0                  1.0                 
7                    0.50                 0.20                 2.0                  1.0                 
8                    0.50                 0.20                 2.0                  1.0                 
9                    0.50                 0.20                 2.0                  1.0                 
10                   0.50                 0.20                 2.0                  1.0                 
11                   0.50                 0.20                 2.0                  1.0                 
12                   0.50                 0.20                 2.0                  1.0                 
13                   0.50                 0.20                 2.0                  1.0                 
14                   0.50                 0.20                 2.0                  1.0                 
15                   0.50                 0.20                 2.0                  1.0                 
16                   0.50                 0.20                 2.0                  1.0                 
17                   0.50                 0.20                 2.0                  1.0                 
18                   0.50                 0.20                 2.0                  1.0                 
19                   0.50                 0.20                 2.0                  1.0                 
20                   0.50                 0.20                 2.0                  1.0                 
21                   0.50                 0.20                 2.0                  1.0                 
22                   0.50                 0.20                 2.0                  1.0                 
23                   0.50                 0.20                 2.0                  1.0                 
24                   0.50                 0.20                 2.0                  1.0                 
25                   0.50                 0.20                 2.0                  1.0                 
26                   0.50                 0.20                 2.0                  1.0                 
27                   0.50                 0.20                 2.0                  1.0                 
28                   0.50                 0.20                 2.0                  1.0                 
29                   0.50                 0.20                 2.0                  1.0                 
30                   0.50                 0.20                 2.0                  1.0                 
31                   0.50                 0.20                 2.0                  1.0                 
32                   0.50                 0.20                 2.0                  1.0                 
33                   0.50                 0.20                 2.0                  1.0                 
34                   0.50                 0.20                 2.0                  1.0                 
35                   0.50                 0.20                 2.0                  1.0                 
36                   0.50                 0.20                 2.0                  1.0                 
37                   0.50                 0.20                 2.0                  1.0                 
38                   0.50                 0.20                 2.0                  1.0                 
39                   0.50                 0.20                 2.0                  1.0                 
40                   0.50                 0.20                 2.0                  1.0                 
41                   0.50                 0.20                 2.0                  1.0                 
42                   0.50                 0.20                 2.0                  1.0                 
43                   0.50                 0.20                 2.0                  1.0                 
44                   0.50                 0.20                 2.0                  1.0                 
45                   0.50                 0.20                 2.0                  1.0                 
46                   0.50                 0.20                 2.0                  1.0                 
47                   0.50                 0.20                 2.0                  1.0                 
48                   0.50                 0.20                 2.0                  1.0                 
49                   0.50                 0.20                 2.0                  1.0                 
50                   0.50                 0.20                 2.0                  1.0                 
51                   0.50                 0.20                 2.0                  1.0                 
52                   0.50                 0.20                 2.0                  1.0                 
53                   0.50                 0.20                 2.0                  1.0                 
54                   0.50                 0.20                 2.0                  1.0                 
55                   0.50                 0.20                 2.0                  1.0                 
56                   0.50                 0.20                 2.0                  1.0                 
57                   0.50                 0.20                 2.0                  1.0                 
58                   0.50                 0.20                 2.0                  1.0                 
59                   0.50                 0.20                 2.0                  1.0                 
60                   0.50                 0.20                 2.0                  1.0                 
61                   0.50                 0.20                 2.0                  1.0                 
62                   0.50                 0.20                 2.0                  1.0                 
63                   0.50                 0.20                 2.0                  1.0                 
64                   0.50                 0.20                 2.0                  1.0                 
65                   0.50                 0.20                 2.0                  1.0                 
66                   0.50                 0.20                 2.0                  1.0                 
67                   0.50                 0.20                 2.0                  1.0                 
68                   0.50                 0.20                 2.0                  1.0                 
69                   0.50                 0.20                 2.0                  1.0                 
70                   0.50                 0.20                 2.0                  1.0                 
71                   0.50                 0.20                 2.0                  1.0                 
72                   0.50                 0.20                 2.0                  1.0                 
73                   0.50                 0.20                 2.0                  1.0                 
74                   0.50                 0.20                 2.0                  1.0                 
75                   0.50                 0.20                 2.0                  1.0                 
76                   0.50                 0.20                 2.0                  1.0                 
77                   0.50                 0.20                 2.0                  1.0                 
78                   0.50                 0.20                 2.0                  1.0                 
79                   0.50                 0.20                 2.0                  1.0                 
80                   0.50                 0.20                 2.0                  1.0                 
81                   0.50                 0.20                 2.0                  1.0                 
82                   0.50                 0.20                 2.0                  1.0                 
83                   0.50                 0.20                 2.0                  1.0                 
84                   0.50                 0.20                 2.0                  1.0                 
85                   0.50                 0.20                 2.0                  1.0                 
86                   0.50                 0.20                 2.0                  1.0                 
87                   0.50                 0.20                 2.0                  1.0                 
88                   0.50                 0.20                 2.0                  1.0                 
89                   0.50                 0.20                 2.0                  1.0                 
90                   0.50                 0.20                 2.0                  1.0                 
91                   0.50                 0.20                 2.0                  1.0                 
92                   0.50                 0.20                 2.0                  1.0                 
93                   0.50                 0.20                 2.0                  1.0                 
94                   0.50                 0.20                 2.0                  1.0                 
95                   0.50                 0.20                 2.0                  1.0                 
96                   0.50                 0.20                 2.0                  1.0                 
97                   0.50                 0.20                 2.0                  1.0                 
98                   0.50                 0.20                 2.0                  1.0                 
99                   0.50                 0.20                 2.0                  1.0                 
100                  0.50                 0.20                 2.0                  1.0                 
101                  0.50                 0.20                 2.0                  1.0                 
102                  0.50                 0.20                 2.0                  1.0                 
103                  0.50                 0.20                 2.0                  1.0                 
104                  0.50                 0.20                 2.0                  1.0                 
105                  0.50                 0.20                 2.0                  1.0                 
106                  0.50                 0.20                 2.0                  1.0                 
107                  0.50                 0.20                 2.0                  1.0                 
108                  0.50                 0.20                 2.0                  1.0                 
109                  0.50                 0.20                 2.0                  1.0                 
110                  0.50                 0.20                 2.0                  1.0                 
111                  0.50                 0.20                 2.0                  1.0                 
112                  0.50                 0.20                 2.0                  1.0                 
113                  0.50                 0.20                 2.0                  1.0                 
114                  0.50                 0.20                 2.0                  1.0                 
115                  0.50                 0.20                 2.0                  1.0                 
116                  0.50                 0.20                 2.0                  1.0                 
117                  0.50                 0.20                 2.0                  1.0                 
118                  0.50                 0.20                 2.0                  1.0                 
119                  0.50                 0.20                 2.0                  1.0                 
120                  0.50                 0.20                 2.0                  1.0                 
121                  0.50                 0.20                 2.0                  1.0                 
122                  0.50                 0.20                 2.0                  1.0                 
123                  0.50                 0.20                 2.0                  1.0                 
124                  0.50                 0.20                 2.0                  1.0                 
125                  0.50                 0.20                 2.0                  1.0                 
126                  0.50                 0.20                 2.0                  1.0                 
127                  0.50                 0.20                 2.0                  1.0                 
128                  0.50                 0.20                 2.0                  1.0                 
129                  0.50                 0.20                 2.0                  1.0                 
130                  0.50                 0.20                 2.0                  1.0                 
131                  0.50                 0.20                 2.0                  1.0                 
132                  0.50                 0.20                 2.0                  1.0                 
133                  0.50                 0.20                 2.0                  1.0                 
134                  0.50                 0.20                 2.0                  1.0                 
135                  0.50                 0.20                 2.0                  1.0                 
136                  0.50                 0.20                 2.0                  1.0                 
137                  0.50                 0.20                 2.0                  1.0                 
138                  0.50                 0.20                 2.0                  1.0                 
139                  0.50                 0.20                 2.0                  1.0                 
140                  0.50                 0.20                 2.0                  1.0                 
141                  0.50                 0.20                 2.0                  1.0                 
142                  0.50                 0.20                 2.0                  1.0                 
143                  0.50                 0.20                 2.0                  1.0                 
144                  0.50                 0.20                 2.0                  1.0                 
145                  0.50                 0.20                 2.0                  1.0                 
146                  0.50                 0.20                 2.0                  1.0                 
147                  0.50                 0.20                 2.0                  1.0                 
148                  0.50                 0.20                 2.0                  1.0                 
149                  0.50                 0.20                 2.0                  1.0                 
150                  0.50                 0.20                 2.0                  1.0                 
151                  0.50                 0.20                 2.0                  1.0                 
152                  0.50                 0.20                 2.0                  1.0                 
153                  0.50                 0.20                 2.0                  1.0                 
154                  0.50                 0.20                 2.0                  1.0                 
155                  0.50                 0.20                 2.0                  1.0                 
156                  0.50                 0.20                 2.0                  1.0                 
157                  0.50                 0.20                 2.0                  1.0                 
158                  0.50                 0.20                 2.0                  1.0                 
159                  0.50                 0.20                 2.0                  1.0                 
160                  0.50                 0.20                 2.0                  1.0                 
161                  0.50                 0.20                 2.0                  1.0                 
162                  0.50                 0.20                 2.0                  1.0                 
163                  0.50                 0.20                 2.0                  1.0                 
164                  0.50                 0.20                 2.0                  1.0                 
165                  0.50                 0.20                 2.0                  1.0                 
166                  0.50                 0.20                 2.0                  1.0                 
167                  0.50                 0.20                 2.0                  1.0                 
168                  0.50                 0.20                 2.0                  1.0                 
169                  0.50                 0.20                 2.0                  1.0                 
170                  0.50                 0.20                 2.0                  1.0                 
171                  0.50                 0.20                 2.0                  1.0                 
172                  0.50                 0.20                 2.0                  1.0                 
173                  0.50                 0.20                 2.0                  1.0                 
174                  0.50                 0.20                 2.0                  1.0                 
175                  0.50                 0.20                 2.0                  1.0                 
176                  0.50                 0.20                 2.0                  1.0                 
177                  0.50                 0.20                 2.0                  1.0                 
178                  0.50                 0.20                 2.0                  1.0                 
179                  0.50                 0.20                 2.0                  1.0                 
180                  0.50                 0.20                 2.0                  1.0                 
181                  0.50                 0.20                 2.0                  1.0                 
182                  0.50                 0.20                 2.0                  1.0                 
183                  0.50                 0.20                 2.0                  1.0                 
184                  0.50                 0.20                 2.0                  1.0                 
185                  0.50                 0.20                 2.0                  1.0                 
186                  0.50                 0.20                 2.0                  1.0                 
187                  0.50                 0.20                 2.0                  1.0                 
188                  0.50                 0.20                 2.0                  1.0                 
189                  0.50                 0.20                 2.0                  1.0                 
190                  0.50                 0.20                 2.0                  1.0                 
191                  0.50                 0.20                 2.0                  1.0                 
192                  0.50                 0.20                 2.0                  1.0                 
193                  0.50                 0.20                 2.0                  1.0                 
194                  0.50                 0.20                 2.0                  1.0                 
195                  0.50                 0.20                 2.0                  1.0                 
196                  0.50                 0.20                 2.0                  1.0                 
197                  0.50                 0.20                 2.0                  1.0                 
198                  0.50                 0.20                 2.0                  1.0                 
199                  0.50                 0.20                 2.0                  1.0                 
200                  0.50                 0.20                 2.0                  1.0                 
201                  0.50                 0.20                 2.0                  1.0                 
202                  0.50                 0.20                 2.0                  1.0                 
203                  0.50                 0.20                 2.0                  1.0                 
204                  0.50                 0.20                 2.0                  1.0                 
205                  0.50                 0.20                 2.0                  1.0                 
206                  0.50                 0.20                 2.0                  1.0                 
207                  0.50                 0.20                 2.0                  1.0                 
208                  0.50                 0.20                 2.0                  1.0                 
209                  0.50                 0.20                 2.0                  1.0                 
210                  0.50                 0.20                 2.0                  1.0                 
211                  0.50                 0.20                 2.0                  1.0                 
212                  0.50                 0.20                 2.0                  1.0                 
213                  0.50                 0.20                 2.0                  1.0                 
214                  0.50                 0.20                 2.0                  1.0                 
215                  0.50                 0.20                 2.0                  1.0                 
216                  0.50                 0.20                 2.0                  1.0                 
217                  0.50                 0.20                 2.0                  1.0                 
218                  0.50                 0.20                 2.0                  1.0                 
219                  0.50                 0.20                 2.0                  1.0                 
220                  0.50                 0.20                 2.0                  1.0                 
221                  0.50                 0.20                 2.0                  1.0                 
222                  0.50                 0.20                 2.0                  1.0                 
223                  0.50                 0.20                 2.0                  1.0                 
224                  0.50                 0.20                 2.0                  1.0                 
225                  0.50                 0.20                 2.0                  1.0                 
226                  0.50                 0.20                 2.0                  1.0                 
227                  0.50                 0.20                 2.0                  1.0                 
228                  0.50                 0.20                 2.0                  1.0                 
229                  0.50                 0.20                 2.0                  1.0                 
230                  0.50                 0.20                 2.0                  1.0                 
231                  0.50                 0.20                 2.0                  1.0                 
232                  0.50                 0.20                 2.0                  1.0                 
233                  0.50                 0.20                 2.0                  1.0                 
234                  0.50                 0.20                 2.0                  1.0                 
235                  0.50                 0.20                 2.0                  1.0                 
236                  0.50                 0.20                 2.0                  1.0                 
237                  0.50                 0.20                 2.0                  1.0                 
238                  0.50                 0.20                 2.0                  1.0                 
239                  0.50                 0.20                 2.0                  1.0                 
240                  0.50                 0.20                 2.0                  1.0                 
241                  0.50                 0.20                 2.0                  1.0                 
242                  0.50                 0.20                 2.0                  1.0                 
243                  0.50                 0.20                 2.0                  1.0                 
244                  0.50                 0.20                 2.0                  1.0                 
245                  0.50                 0.20                 2.0                  1.0                 
246                  0.50                 0.20                 2.0                  1.0                 
247                  0.50                 0.20                 2.0                  1.0                 
248                  0.50                 0.20                 2.0                  1.0                 
249                  0.50                 0.20                 2.0                  1.0                 
250                  0.50                 0.20                 2.0                  1.0                 
251                  0.50                 0.20                 2.0                  1.0                 
252                  0.50                 0.20                 2.0                  1.0                 
253                  0.50                 0.20                 2.0                  1.0                 
254                  0.50                 0.20                 2.0                  1.0                 
255                  0.50                 0.20                 2.0                  1.0                 
256                  0.50                 0.20                 2.0                  1.0                 
257                  0.50                 0.20                 2.0                  1.0                 
258                  0.50                 0.20                 2.0                  1.0                 
259                  0.50                 0.20                 2.0                  1.0                 
260                  0.50                 0.20                 2.0                  1.0                 
261                  0.50                 0.20                 2.0                  1.0                 
262                  0.50                 0.20                 2.0                  1.0                 
263                  0.50                 0.20                 2.0                  1.0                 
264                  0.50                 0.20                 2.0                  1.0                 
265                  0.50                 0.20                 2.0                  1.0                 
266                  0.50                 0.20                 2.0                  1.0                 
267                  0.50                 0.20                 2.0                  1.0                 
268                  0.50                 0.20                 2.0                  1.0                 
269                  0.50                 0.20                 2.0                  1.0                 
270                  0.50                 0.20                 2.0                  1.0                 
271                  0.50                 0.20                 2.0                  1.0                 
272                  0.50                 0.20                 2.0                  1.0                 
273                  0.50                 0.20                 2.0                  1.0                 
274                  0.50                 0.20                 2.0                  1.0                 
275                  0.50                 0.20                 2.0                  1.0                 
276                  0.50                 0.20                 2.0                  1.0                 
277                  0.50                 0.20                 2.0                  1.0                 
278                  0.50                 0.20                 2.0                  1.0                 
279                  0.50                 0.20                 2.0                  1.0                 
280                  0.50                 0.20                 2.0                  1.0                 
281                  0.50                 0.20                 2.0                  1.0                 
282                  0.50                 0.20                 2.0                  1.0                 
283                  0.50                 0.20                 2.0                  1.0                 
284                  0.50                 0.20                 2.0                  1.0                 
285                  0.50                 0.20                 2.0                  1.0                 
286                  0.50                 0.20                 2.0                  1.0                 
287                  0.50                 0.20                 2.0                  1.0                 
288                  0.50                 0.20                 2.0                  1.0                 
289                  0.50                 0.20                 2.0                  1.0                 
290                  0.50                 0.20                 2.0                  1.0                 
291                  0.50                 0.20                 2.0                  1.0                 
292                  0.50                 0.20                 2.0                  1.0                 
293                  0.50                 0.20                 2.0                  1.0                 
294                  0.50                 0.20                 2.0                  1.0                 
295                  0.50                 0.20                 2.0                  1.0                 
296                  0.50                 0.20                 2.0                  1.0                 
297                  0.50                 0.20                 2.0                  1.0                 
298                  0.50                 0.20                 2.0                  1.0                 
299                  0.50                 0.20                 2.0                  1.0                 
300                  0.50                 0.20                 2.0                  1.0                 
301                  0.50                 0.20                 2.0                  1.0                 
302                  0.50                 0.20                 2.0                  1.0                 
303                  0.50                 0.20                 2.0                  1.0                 
304                  0.50                 0.20                 2.0                  1.0                 
305                  0.50                 0.20                 2.0                  1.0                 
306                  0.50                 0.20                 2.0                  1.0                 
307                  0.50                 0.20                 2.0                  1.0                 
308                  0.50                 0.20                 2.0                  1.0                 
309                  0.50                 0.20                 2.0                  1.0                 
310                  0.50                 0.20                 2.0                  1.0                 
311                  0.50                 0.20                 2.0                  1.0                 
312                  0.50                 0.20                 2.0                  1.0                 
313                  0.50                 0.20                 2.0                  1.0                 
314                  0.50                 0.20                 2.0                  1.0                 
315                  0.50                 0.20                 2.0                  1.0                 
316                  0.50                 0.20                 2.0                  1.0                 
317                  0.50                 0.20                 2.0                  1.0                 
318                  0.50                 0.20                 2.0                  1.0                 
319                  0.50                 0.20                 2.0                  1.0                 
320                  0.50                 0.20                 2.0                  1.0                 
321                  0.50                 0.20                 2.0                  1.0                 
322                  0.50                 0.20                 2.0                  1.0                 
323                  0.50                 0.20                 2.0                  1.0                 
324                  0.50                 0.20                 2.0                  1.0                 
325                  0.50                 0.20                 2.0                  1.0                 
326                  0.50                 0.20                 2.0                  1.0                 
327                  0.50                 0.20                 2.0                  1.0                 
328                  0.50                 0.20                 2.0                  1.0                 
329                  0.50                 0.20                 2.0                  1.0                 
330                  0.50                 0.20                 2.0                  1.0                 
331                  0.50                 0.20                 2.0                  1.0                 
332                  0.50                 0.20                 2.0                  1.0                 
333                  0.50                 0.20                 2.0                  1.0                 
334                  0.50                 0.20                 2.0                  1.0                 
335                  0.50                 0.20                 2.0                  1.0                 
336                  0.50                 0.20                 2.0                  1.0                 
337                  0.50                 0.20                 2.0                  1.0                 
338                  0.50                 0.20                 2.0                  1.0                 
339                  0.50                 0.20                 2.0                  1.0                 
340                  0.50                 0.20                 2.0                  1.0                 
341                  0.50                 0.20                 2.0                  1.0                 
342                  0.50                 0.20                 2.0                  1.0                 
343                  0.50                 0.20                 2.0                  1.0                 
344                  0.50                 0.20                 2.0                  1.0                 
345                  0.50                 0.20                 2.0                  1.0                 
346                  0.50                 0.20                 2.0                  1.0                 
347                  0.50                 0.20                 2.0                  1.0                 
348                  0.50                 0.20                 2.0                  1.0                 
349                  0.50                 0.20                 2.0                  1.0                 
350                  0.50                 0.20                 2.0                  1.0                 
351                  0.50                 0.20                 2.0                  1.0                 
352                  0.50                 0.20                 2.0                  1.0                 
353                  0.50                 0.20                 2.0                  1.0                 
354                  0.50                 0.20                 2.0                  1.0                 
355                  0.50                 0.20                 2.0                  1.0                 
356                  0.50                 0.20                 2.0                  1.0                 
357                  0.50                 0.20                 2.0                  1.0                 
358                  0.50                 0.20                 2.0                  1.0                 
359                  0.50                 0.20                 2.0                  1.0                 
360                  0.50                 0.20                 2.0                  1.0                 
361                  0.50                 0.20                 2.0                  1.0                 
362                  0.50                 0.20                 2.0                  1.0                 
363                  0.50                 0.20                 2.0                  1.0                 
364                  0.50                 0.20                 2.0                  1.0                 
365                  0.50                 0.20                 2.0                  1.0                 
366                  0.50                 0.20                 2.0                  1.0                 
367                  0.50                 0.20                 2.0                  1.0                 
368                  0.50                 0.20                 2.0                  1.0                 
369                  0.50                 0.20                 2.0                  1.0                 
370                  0.50                 0.20                 2.0                  1.0                 
371                  0.50                 0.20                 2.0                  1.0                 
372                  0.50                 0.20                 2.0                  1.0                 
373                  0.50                 0.20                 2.0                  1.0                 
374                  0.50                 0.20                 2.0                  1.0                 
375                  0.50                 0.20                 2.0                  1.0                 
376                  0.50                 0.20                 2.0                  1.0                 
377                  0.50                 0.20                 2.0                  1.0                 
378                  0.50                 0.20                 2.0                  1.0                 
379                  0.50                 0.20                 2.0                  1.0                 
380                  0.50                 0.20                 2.0                  1.0                 
381                  0.50                 0.20                 2.0                  1.0                 
382                  0.50                 0.20                 2.0                  1.0                 
383                  0.50                 0.20                 2.0                  1.0                 
384                  0.50                 0.20                 2.0                  1.0                 
385                  0.50                 0.20                 2.0                  1.0                 
386                  0.50                 0.20                 2.0                  1.0                 
387                  0.50                 0.20                 2.0                  1.0                 
388                  0.50                 0.20                 2.0                  1.0                 
389                  0.50                 0.20                 2.0                  1.0                 
390                  0.50                 0.20                 2.0                  1.0                 
391                  0.50                 0.20                 2.0                  1.0                 
392                  0.50                 0.20                 2.0                  1.0                 
393                  0.50                 0.20                 2.0                  1.0                 
394                  0.50                 0.20                 2.0                  1.0                 
395                  0.50                 0.20                 2.0                  1.0                 
396                  0.50                 0.20                 2.0                  1.0                 
397                  0.50                 0.20                 2.0                  1.0                 
398                  0.50                 0.20                 2.0                  1.0                 
399                  0.50                 0.20                 2.0                  1.0                 
400                  0.50                 0.20                 2.0                  1.0                 
401                  0.50                 0.20                 2.0                  1.0                 
402                  0.50                 0.20                 2.0                  1.0                 
403                  0.50                 0.20                 2.0                  1.0                 
404                  0.50                 0.20                 2.0                  1.0                 
405                  0.50                 0.20                 2.0                  1.0                 
406                  0.50                 0.20                 2.0                  1.0                 
407                  0.50                 0.20                 2.0                  1.0                 
408                  0.50                 0.20                 2.0                  1.0                 
409                  0.50                 0.20                 2.0                  1.0                 
410                  0.50                 0.20                 2.0                  1.0                 
411                  0.50                 0.20                 2.0                  1.0                 
412                  0.50                 0.20                 2.0                  1.0                 
413                  0.50                 0.20                 2.0                  1.0                 
414                  0.50                 0.20                 2.0                  1.0                 
415                  0.50                 0.20                 2.0                  1.0                 
416                  0.50                 0.20                 2.0                  1.0                 
417                  0.50                 0.20                 2.0                  1.0                 
418                  0.50                 0.20                 2.0                  1.0                 
419                  0.50                 0.20                 2.0                  1.0                 
420                  0.50                 0.20                 2.0                  1.0                 
421                  0.50                 0.20                 2.0                  1.0                 
422                  0.50                 0.20                 2.0                  1.0                 
423                  0.50                 0.20                 2.0                  1.0                 
424                  0.50                 0.20                 2.0                  1.0                 
425                  0.50                 0.20                 2.0                  1.0                 
426                  0.50                 0.20                 2.0                  1.0                 
427                  0.50                 0.20                 2.0                  1.0                 
428                  0.50                 0.20                 2.0                  1.0                 
429                  0.50                 0.20                 2.0                  1.0                 
430                  0.50                 0.20                 2.0                  1.0                 
431                  0.50                 0.20                 2.0                  1.0                 
432                  0.50                 0.20                 2.0                  1.0                 
433                  0.50                 0.20                 2.0                  1.0                 
434                  0.50                 0.20                 2.0                  1.0                 
435                  0.50                 0.20                 2.0                  1.0                 
436                  0.50                 0.20                 2.0                  1.0                 
437                  0.50                 0.20                 2.0                  1.0                 
438                  0.50                 0.20                 2.0                  1.0                 
439                  0.50                 0.20                 2.0                  1.0                 
440                  0.50                 0.20                 2.0                  1.0                 
441                  0.50                 0.20                 2.0                  1.0                 
442                  0.50                 0.20                 2.0                  1.0                 
443                  0.50                 0.20                 2.0                  1.0                 
444                  0.50                 0.20                 2.0                  1.0                 
445                  0.50                 0.20                 2.0                  1.0                 
446                  0.50                 0.20                 2.0                  1.0                 
447                  0.50                 0.20                 2.0                  1.0                 
448                  0.50                 0.20                 2.0                  1.0                 
449                  0.50                 0.20                 2.0                  1.0                 
450                  0.50                 0.20                 2.0                  1.0                 
451                  0.50                 0.20                 2.0                  1.0                 
452                  0.50                 0.20                 2.0                  1.0                 
453                  0.50                 0.20                 2.0                  1.0                 
454                  0.50                 0.20                 2.0                  1.0                 
455                  0.50                 0.20                 2.0                  1.0                 
456                  0.50                 0.20                 2.0                  1.0                 
457                  0.50                 0.20                 2.0                  1.0                 
458                  0.50                 0.20                 2.0                  1.0                 
459                  0.50                 0.20                 2.0                  1.0                 
460                  0.50                 0.20                 2.0                  1.0                 
461                  0.50                 0.20                 2.0                  1.0                 
462                  0.50                 0.20                 2.0                  1.0                 
463                  0.50                 0.20                 2.0                  1.0                 
464                  0.50                 0.20                 2.0                  1.0                 
465                  0.50                 0.20                 2.0                  1.0                 
466                  0.50                 0.20                 2.0                  1.0                 
467                  0.50                 0.20                 2.0                  1.0                 
468                  0.50                 0.20                 2.0                  1.0                 
469                  0.50                 0.20                 2.0                  1.0                 
470                  0.50                 0.20                 2.0                  1.0                 
471                  0.50                 0.20                 2.0                  1.0                 
472                  0.50                 0.20                 2.0                  1.0                 
473                  0.50                 0.20                 2.0                  1.0                 
474                  0.50                 0.20                 2.0                  1.0                 
475                  0.50                 0.20                 2.0                  1.0                 
476                  0.50                 0.20                 2.0                  1.0                 
477                  0.50                 0.20                 2.0                  1.0                 
478                  0.50                 0.20                 2.0                  1.0                 
479                  0.50                 0.20                 2.0                  1.0                 
480                  0.50                 0.20                 2.0                  1.0                 
481                  0.50                 0.20                 2.0                  1.0                 
482                  0.50                 0.20                 2.0                  1.0                 
483                  0.50                 0.20                 2.0                  1.0                 
484                  0.50                 0.20                 2.0                  1.0                 
485                  0.50                 0.20                 2.0                  1.0                 
486                  0.50                 0.20                 2.0                  1.0                 
487                  0.50                 0.20                 2.0                  1.0                 
488                  0.50                 0.20                 2.0                  1.0                 
489                  0.50                 0.20                 2.0                  1.0                 
490                  0.50                 0.20                 2.0                  1.0                 
491                  0.50                 0.20                 2.0                  1.0                 
492                  0.50                 0.20                 2.0                  1.0                 
493                  0.50                 0.20                 2.0                  1.0                 
494                  0.50                 0.20                 2.0                  1.0                 
495                  0.50                 0.20                 2.0                  1.0                 
496                  0.50                 0.20                 2.0                  1.0                 
497                  0.50                 0.20                 2.0                  1.0                 
498                  0.50                 0.20                 2.0                  1.0                 
499                  0.50                 0.20                 2.0                  1.0                 
500                  0.50                 0.20                 2.0                  1.0                 
501                  0.50                 0.20                 2.0                  1.0                 
502                  0.50                 0.20                 2.0                  1.0                 
503                  0.50                 0.20                 2.0                  1.0                 
504                  0.50                 0.20                 2.0                  1.0                 
505                  0.50                 0.20                 2.0                  1.0                 
506                  0.50                 0.20                 2.0                  1.0                 
507                  0.50                 0.20                 2.0                  1.0                 
508                  0.50                 0.20                 2.0                  1.0                 
509                  0.50                 0.20                 2.0                  1.0                 
510                  0.50                 0.20                 2.0                  1.0                 
511                  0.50                 0.20                 2.0                  1.0                 
512                  0.50                 0.20                 2.0                  1.0                 
513                  0.50                 0.20                 2.0                  1.0                 
514                  0.50                 0.20                 2.0                  1.0                 
515                  0.50                 0.20                 2.0                  1.0                 
516                  0.50                 0.20                 2.0                  1.0                 
517                  0.50                 0.20                 2.0                  1.0                 
518                  0.50                 0.20                 2.0                  1.0                 
519                  0.50                 0.20                 2.0                  1.0                 
520                  0.50                 0.20                 2.0                  1.0                 
521                  0.50                 0.20                 2.0                  1.0                 
522                  0.50                 0.20                 2.0                  1.0                 
523                  0.50                 0.20                 2.0                  1.0                 
524                  0.50                 0.20                 2.0                  1.0                 
525                  0.50                 0.20                 2.0                  1.0                 
526                  0.50                 0.20                 2.0                  1.0                 
527                  0.50                 0.20                 2.0                  1.0                 
528                  0.50                 0.20                 2.0                  1.0                 
529                  0.50                 0.20                 2.0                  1.0                 
530                  0.50                 0.20                 2.0                  1.0                 
531                  0.50                 0.20                 2.0                  1.0                 
532                  0.50                 0.20                 2.0                  1.0                 
533                  0.50                 0.20                 2.0                  1.0                 
534                  0.50                 0.20                 2.0                  1.0                 
535                  0.50                 0.20                 2.0                  1.0                 
536                  0.50                 0.20                 2.0                  1.0                 
537                  0.50                 0.20                 2.0                  1.0                 
538                  0.50                 0.20                 2.0                  1.0                 
539                  0.50                 0.20                 2.0                  1.0                 
540                  0.50                 0.20                 2.0                  1.0                 
541                  0.50                 0.20                 2.0                  1.0                 
542                  0.50                 0.20                 2.0                  1.0                 
543                  0.50                 0.20                 2.0                  1.0                 
544                  0.50                 0.20                 2.0                  1.0                 
545                  0.50                 0.20                 2.0                  1.0                 
546                  0.50                 0.20                 2.0                  1.0                 
547                  0.50                 0.20                 2.0                  1.0                 
548                  0.50                 0.20                 2.0                  1.0                 
549                  0.50                 0.20                 2.0                  1.0                 
550                  0.50                 0.20                 2.0                  1.0                 
551                  0.50                 0.20                 2.0                  1.0                 
552                  0.50                 0.20                 2.0                  1.0                 
553                  0.50                 0.20                 2.0                  1.0                 
554                  0.50                 0.20                 2.0                  1.0                 
555                  0.50                 0.20                 2.0                  1.0                 
556                  0.50                 0.20                 2.0                  1.0                 
557                  0.50                 0.20                 2.0                  1.0                 
558                  0.50                 0.20                 2.0                  1.0                 
559                  0.50                 0.20                 2.0                  1.0                 
560                  0.50                 0.20                 2.0                  1.0                 

[JUNCTIONS]
;Name                  Elev            Ymax            Y0           SurchargeDepth      PondedArea
;-------------------- ------------------- ------------------- ------------------- ------------------- -------------------
DY513                0.633                2.46                 0.0                  0.0                  0.0                 
DY515                0.748                2.36                 0.0                  0.0                  0.0                 
DY511                0.679                2.45                 0.0                  0.0                  0.0                 
DY509                0.599                2.61                 0.0                  0.0                  0.0                 
DY529                0.666                2.65                 0.0                  0.0                  0.0                 
DY526                0.559                2.68                 0.0                  0.0                  0.0                 
CY89                 1.149                1.80                 0.0                  0.0                  0.0                 
CY88                 0.653                2.21                 0.0                  0.0                  0.0                 
CY128                0.989                1.57                 0.0                  0.0                  0.0                 
CY83                 1.088                1.90                 0.0                  0.0                  0.0                 
CY98                 0.423                2.20                 0.0                  0.0                  0.0                 
CY126                0.991                1.51                 0.0                  0.0                  0.0                 
CY164                -1.291               3.66                 0.0                  0.0                  0.0                 
CY139                -0.256               3.00                 0.0                  0.0                  0.0                 
CY62T1               -0.909               3.39                 0.0                  0.0                  0.0                 
CY147                -1.044               3.33                 0.0                  0.0                  0.0                 
CY97                 0.400                2.22                 0.0                  0.0                  0.0                 
CY120                -1.339               3.95                 0.0                  0.0                  0.0                 
CY125                0.209                2.33                 0.0                  0.0                  0.0                 
CY133                -0.579               3.00                 0.0                  0.0                  0.0                 
CY135                -0.599               3.00                 0.0                  0.0                  0.0                 
CY137                -0.409               3.00                 0.0                  0.0                  0.0                 
DY384                0.711                2.93                 0.0                  0.0                  0.0                 
CY156                -0.962               3.49                 0.0                  0.0                  0.0                 
CY163                -1.087               3.35                 0.0                  0.0                  0.0                 
CY76T1               0.095                2.57                 0.0                  0.0                  0.0                 
CY74T1               -0.081               2.59                 0.0                  0.0                  0.0                 
CY72T1               -0.232               2.62                 0.0                  0.0                  0.0                 
CY151                0.184                2.64                 0.0                  0.0                  0.0                 
CY71T1               -0.285               2.64                 0.0                  0.0                  0.0                 
CY70T1               -0.253               2.62                 0.0                  0.0                  0.0                 
CY69T1               -0.300               2.70                 0.0                  0.0                  0.0                 
CY64T1               -0.617               2.92                 0.0                  0.0                  0.0                 
CY132                -0.627               3.00                 0.0                  0.0                  0.0                 
CY131                -0.676               3.00                 0.0                  0.0                  0.0                 
CY72                 0.623                2.30                 0.0                  0.0                  0.0                 
CY110                0.320                2.34                 0.0                  0.0                  0.0                 
CY91                 0.347                2.31                 0.0                  0.0                  0.0                 
CY87                 0.201                2.59                 0.0                  0.0                  0.0                 
DY517                0.758                2.36                 0.0                  0.0                  0.0                 
DY533                0.483                2.96                 0.0                  0.0                  0.0                 
DY522                0.380                2.62                 0.0                  0.0                  0.0                 
DY524                0.553                2.72                 0.0                  0.0                  0.0                 
DY437                0.561                2.35                 0.0                  0.0                  0.0                 
DY433                -0.152               3.01                 0.0                  0.0                  0.0                 
CY153                -0.290               3.00                 0.0                  0.0                  0.0                 
CY82                 0.374                2.45                 0.0                  0.0                  0.0                 
CY80                 0.596                2.25                 0.0                  0.0                  0.0                 
CY79                 0.341                2.49                 0.0                  0.0                  0.0                 
CY77                 0.420                2.47                 0.0                  0.0                  0.0                 
CY68T1               -0.669               2.96                 0.0                  0.0                  0.0                 
CY90                 -0.220               2.82                 0.0                  0.0                  0.0                 
CY93                 0.116                2.55                 0.0                  0.0                  0.0                 
CY96                 -0.301               2.89                 0.0                  0.0                  0.0                 
CY99                 0.036                2.61                 0.0                  0.0                  0.0                 
CY102                -0.583               3.18                 0.0                  0.0                  0.0                 
CY106                -1.532               4.12                 0.0                  0.0                  0.0                 
CY108                -1.668               4.32                 0.0                  0.0                  0.0                 
CY113                0.285                2.35                 0.0                  0.0                  0.0                 
CY145-9              -0.217               2.55                 0.0                  0.0                  0.0                 
CY145-17             -0.325               2.46                 0.0                  0.0                  0.0                 
CY130                -0.764               3.00                 0.0                  0.0                  0.0                 
CY69                 -0.752               3.95                 0.0                  0.0                  0.0                 
CY74                 -0.777               3.70                 0.0                  0.0                  0.0                 
CY75                 -0.707               3.41                 0.0                  0.0                  0.0                 
CY78                 -0.794               3.51                 0.0                  0.0                  0.0                 
CY81                 -0.203               3.01                 0.0                  0.0                  0.0                 
CY119                -0.847               3.49                 0.0                  0.0                  0.0                 
CY95                 0.568                2.09                 0.0                  0.0                  0.0                 
CY111                -1.389               3.95                 0.0                  0.0                  0.0                 
CY114                -1.601               4.22                 0.0                  0.0                  0.0                 
CY94                 0.279                2.35                 0.0                  0.0                  0.0                 
CY112                0.115                2.51                 0.0                  0.0                  0.0                 
CY159                -1.116               3.67                 0.0                  0.0                  0.0                 
CY145-20             0.273                1.50                 0.0                  0.0                  0.0                 
CY66T1               -0.588               2.86                 0.0                  0.0                  0.0                 
DY419                -0.814               3.90                 0.0                  0.0                  0.0                 
CY145-15             -0.405               2.46                 0.0                  0.0                  0.0                 
CY145-6              -0.006               2.40                 0.0                  0.0                  0.0                 
DY391                2.648                1.73                 0.0                  0.0                  0.0                 
GY245                -0.022               3.05                 0.0                  0.0                  0.0                 
CY104                0.780                1.84                 0.0                  0.0                  0.0                 
CY145-7              0.097                2.29                 0.0                  0.0                  0.0                 
CY145                0.140                2.70                 0.0                  0.0                  0.0                 
CY121                0.143                2.45                 0.0                  0.0                  0.0                 
CY117                0.477                2.14                 0.0                  0.0                  0.0                 
CY118                0.259                2.35                 0.0                  0.0                  0.0                 
CY116                0.342                2.29                 0.0                  0.0                  0.0                 
CY115                0.335                2.29                 0.0                  0.0                  0.0                 
CY73                 0.615                2.35                 0.0                  0.0                  0.0                 
CY124                0.096                2.49                 0.0                  0.0                  0.0                 
CY86                 0.390                2.49                 0.0                  0.0                  0.0                 
CY85                 0.320                2.47                 0.0                  0.0                  0.0                 
CY161                -1.294               3.74                 0.0                  0.0                  0.0                 
CY71                 0.799                2.43                 0.0                  0.0                  0.0                 
CY70                 0.703                2.52                 0.0                  0.0                  0.0                 
CY145-1              0.021                2.57                 0.0                  0.0                  0.0                 
CY62T2               0.000                2.17                 0.0                  0.0                  0.0                 
CY149                -1.301               3.65                 0.0                  0.0                  0.0                 
CY165                -1.367               3.68                 0.0                  0.0                  0.0                 
CY142                -0.060               3.00                 0.0                  0.0                  0.0                 
CY145-3              0.103                2.39                 0.0                  0.0                  0.0                 
CY145-18             -1.919               3.70                 0.0                  0.0                  0.0                 
CY145-19             0.153                1.66                 0.0                  0.0                  0.0                 
CY130-2              0.049                1.75                 0.0                  0.0                  0.0                 
CY157-1              -0.152               2.80                 0.0                  0.0                  0.0                 
CY130-1              -1.587               3.50                 0.0                  0.0                  0.0                 
CY103                0.639                2.02                 0.0                  0.0                  0.0                 
DY441                0.756                2.35                 0.0                  0.0                  0.0                 
CY101                0.416                2.22                 0.0                  0.0                  0.0                 
CY100                0.361                2.27                 0.0                  0.0                  0.0                 
CY76                 0.418                2.36                 0.0                  0.0                  0.0                 
CY122                0.387                2.21                 0.0                  0.0                  0.0                 
CY145-10             -0.081               2.40                 0.0                  0.0                  0.0                 
CY157                -0.912               3.46                 0.0                  0.0                  0.0                 
CY109                0.130                2.52                 0.0                  0.0                  0.0                 
CY107                0.721                1.92                 0.0                  0.0                  0.0                 
CY105                0.396                2.21                 0.0                  0.0                  0.0                 
CY92                 0.414                2.28                 0.0                  0.0                  0.0                 
DY520                0.565                2.48                 0.0                  0.0                  0.0                 
DY435                0.027                2.85                 0.0                  0.0                  0.0                 
DY426                -0.576               3.50                 0.0                  0.0                  0.0                 
DY425                0.475                2.41                 0.0                  0.0                  0.0                 
DY507                0.667                2.56                 0.0                  0.0                  0.0                 
CY145-8              -0.004               2.24                 0.0                  0.0                  0.0                 
CY145-13             -0.248               2.37                 0.0                  0.0                  0.0                 
CY84                 -0.025               2.89                 0.0                  0.0                  0.0                 
DY423                -0.639               3.60                 0.0                  0.0                  0.0                 
DY421                -0.746               3.80                 0.0                  0.0                  0.0                 
DY413                0.107                3.90                 0.0                  0.0                  0.0                 
DY415                0.422                2.85                 0.0                  0.0                  0.0                 
GY258                -0.038               2.94                 0.0                  0.0                  0.0                 
GY263                0.114                2.45                 0.0                  0.0                  0.0                 
GY249                -0.035               2.86                 0.0                  0.0                  0.0                 
GY247                -0.179               3.00                 0.0                  0.0                  0.0                 
GY255                0.160                2.78                 0.0                  0.0                  0.0                 
GY227                0.841                2.53                 0.0                  0.0                  0.0                 
GY260                0.654                2.71                 0.0                  0.0                  0.0                 
GY226                0.777                2.56                 0.0                  0.0                  0.0                 
GY251                -0.087               3.07                 0.0                  0.0                  0.0                 
GY196                -0.500               3.09                 0.0                  0.0                  0.0                 
GY198                -0.343               3.35                 0.0                  0.0                  0.0                 
GY200                -0.290               2.96                 0.0                  0.0                  0.0                 
DY431                -0.421               3.35                 0.0                  0.0                  0.0                 
DY394                0.983                3.56                 0.0                  0.0                  0.0                 
DY392                2.907                1.83                 0.0                  0.0                  0.0                 
DY405                -0.910               4.90                 0.0                  0.0                  0.0                 
DY393                2.457                2.30                 0.0                  0.0                  0.0                 
DY505                0.631                2.72                 0.0                  0.0                  0.0                 
GY243                -0.543               3.38                 0.0                  0.0                  0.0                 
AY16-1               -1.948               4.50                 0.0                  0.0                  0.0                 
DY414                0.280                3.61                 0.0                  0.0                  0.0                 
DY390                1.161                3.20                 0.0                  0.0                  0.0                 
DY531                0.403                2.88                 0.0                  0.0                  0.0                 
GY240                -0.295               3.50                 0.0                  0.0                  0.0                 
DY502                0.594                2.87                 0.0                  0.0                  0.0                 
DY418                -0.642               3.90                 0.0                  0.0                  0.0                 
DY428                0.000                2.94                 0.0                  0.0                  0.0                 
DY503                0.551                3.05                 0.0                  0.0                  0.0                 
DY402                -0.799               4.45                 0.0                  0.0                  0.0                 
DY504                0.000                3.67                 0.0                  0.0                  0.0                 
GY238                0.364                2.80                 0.0                  0.0                  0.0                 
DY409                -0.006               4.40                 0.0                  0.0                  0.0                 
DY396                1.040                3.31                 0.0                  0.0                  0.0                 
DY398                1.086                3.02                 0.0                  0.0                  0.0                 
DY411                -0.546               4.90                 0.0                  0.0                  0.0                 
DY400                1.082                2.80                 0.0                  0.0                  0.0                 
DY406                -0.118               4.30                 0.0                  0.0                  0.0                 
GY236                0.695                2.71                 0.0                  0.0                  0.0                 
GY242                -0.192               3.30                 0.0                  0.0                  0.0                 
DY386                1.070                2.65                 0.0                  0.0                  0.0                 
DY388                0.648                3.25                 0.0                  0.0                  0.0                 
DY383                0.759                2.70                 0.0                  0.0                  0.0                 
GY218                0.344                2.90                 0.0                  0.0                  0.0                 
GY212                -0.117               3.05                 0.0                  0.0                  0.0                 
GY228                0.000                3.45                 0.0                  0.0                  0.0                 
GY194                0.000                2.52                 0.0                  0.0                  0.0                 
GY232                0.809                2.54                 0.0                  0.0                  0.0                 
GY230                0.973                2.56                 0.0                  0.0                  0.0                 
GY234                0.519                2.75                 0.0                  0.0                  0.0                 
GY223                0.549                2.73                 0.0                  0.0                  0.0                 
GY207                -0.503               3.25                 0.0                  0.0                  0.0                 
GY210                0.007                3.03                 0.0                  0.0                  0.0                 
GY213                0.229                2.90                 0.0                  0.0                  0.0                 
GY202                -1.035               3.78                 0.0                  0.0                  0.0                 
GY205                -0.689               3.65                 0.0                  0.0                  0.0                 
BY187                -0.423               2.52                 0.0                  0.0                  0.0                 
BY29                 -0.807               3.64                 0.0                  0.0                  0.0                 
BY30                 -0.715               3.65                 0.0                  0.0                  0.0                 
BY27                 -0.939               3.75                 0.0                  0.0                  0.0                 
AY139                -0.898               3.25                 0.0                  0.0                  0.0                 
AY138                -0.889               3.25                 0.0                  0.0                  0.0                 
AY137                -2.423               4.70                 0.0                  0.0                  0.0                 
AY136                -2.089               4.70                 0.0                  0.0                  0.0                 
AY135                -2.627               4.70                 0.0                  0.0                  0.0                 
AY134                -2.782               4.70                 0.0                  0.0                  0.0                 
AY133                -2.742               4.70                 0.0                  0.0                  0.0                 
AY132                -2.636               4.70                 0.0                  0.0                  0.0                 
AY150                -0.800               3.15                 0.0                  0.0                  0.0                 
AY148                -0.628               3.05                 0.0                  0.0                  0.0                 
AY147                -0.498               3.15                 0.0                  0.0                  0.0                 
AY146                -0.856               3.25                 0.0                  0.0                  0.0                 
AY145                -0.765               3.25                 0.0                  0.0                  0.0                 
AY144                -0.552               3.25                 0.0                  0.0                  0.0                 
AY116                -0.714               2.95                 0.0                  0.0                  0.0                 
AY143                -0.884               3.25                 0.0                  0.0                  0.0                 
AY142                -0.876               3.25                 0.0                  0.0                  0.0                 
AY115                -0.617               2.95                 0.0                  0.0                  0.0                 
BY28                 -0.788               3.65                 0.0                  0.0                  0.0                 
AY123                -0.806               3.05                 0.0                  0.0                  0.0                 
AY111                -0.279               2.75                 0.0                  0.0                  0.0                 
AY110                -0.305               2.75                 0.0                  0.0                  0.0                 
AY109                -0.316               2.75                 0.0                  0.0                  0.0                 
AY118                -0.521               3.02                 0.0                  0.0                  0.0                 
AY126                -1.433               3.45                 0.0                  0.0                  0.0                 
AY125                -1.285               3.45                 0.0                  0.0                  0.0                 
AY124                -1.237               3.35                 0.0                  0.0                  0.0                 
AY59                 -0.870               3.05                 0.0                  0.0                  0.0                 
AY60                 -1.712               4.00                 0.0                  0.0                  0.0                 
BY8                  -0.426               2.91                 0.0                  0.0                  0.0                 
AY65-1               0.541                1.75                 0.0                  0.0                  0.0                 
AY107                -0.371               2.75                 0.0                  0.0                  0.0                 
AY113                -0.652               2.85                 0.0                  0.0                  0.0                 
AY112                -0.291               2.75                 0.0                  0.0                  0.0                 
AY108                -0.604               2.85                 0.0                  0.0                  0.0                 
AY130                -1.334               3.45                 0.0                  0.0                  0.0                 
AY129                -1.327               3.35                 0.0                  0.0                  0.0                 
AY128                -1.503               3.55                 0.0                  0.0                  0.0                 
AY153                -0.353               2.92                 0.0                  0.0                  0.0                 
AY152                -0.522               2.95                 0.0                  0.0                  0.0                 
AY117                -0.597               3.05                 0.0                  0.0                  0.0                 
AY106                -0.449               2.85                 0.0                  0.0                  0.0                 
AY122                -0.745               3.05                 0.0                  0.0                  0.0                 
AY121                -0.685               3.05                 0.0                  0.0                  0.0                 
AY120                -0.483               2.85                 0.0                  0.0                  0.0                 
BY6                  -0.771               3.12                 0.0                  0.0                  0.0                 
BY10                 -0.346               2.95                 0.0                  0.0                  0.0                 
AY58                 -0.766               3.21                 0.0                  0.0                  0.0                 
AY57                 -0.551               3.27                 0.0                  0.0                  0.0                 
AY57-1               0.601                2.05                 0.0                  0.0                  0.0                 
AY46                 -0.251               2.75                 0.0                  0.0                  0.0                 
AY42                 -0.319               3.00                 0.0                  0.0                  0.0                 
AY119                -0.288               2.75                 0.0                  0.0                  0.0                 
AY127                -1.493               3.45                 0.0                  0.0                  0.0                 
AY50                 -1.112               3.51                 0.0                  0.0                  0.0                 
BY13                 -1.209               3.31                 0.0                  0.0                  0.0                 
AY54                 -0.340               2.87                 0.0                  0.0                  0.0                 
AY54-3               0.446                2.20                 0.0                  0.0                  0.0                 
AY54-2               -0.088               2.40                 0.0                  0.0                  0.0                 
BY5                  -0.902               3.15                 0.0                  0.0                  0.0                 
BY1                  -0.924               3.90                 0.0                  0.0                  0.0                 
BY2                  -0.031               2.95                 0.0                  0.0                  0.0                 
BY3                  -0.674               3.20                 0.0                  0.0                  0.0                 
BY4                  -0.664               3.00                 0.0                  0.0                  0.0                 
AY62                 -0.687               2.89                 0.0                  0.0                  0.0                 
AY65                 -0.608               2.82                 0.0                  0.0                  0.0                 
AY47                 -0.253               2.77                 0.0                  0.0                  0.0                 
AY48                 -0.285               2.77                 0.0                  0.0                  0.0                 
BY11                 -0.777               3.12                 0.0                  0.0                  0.0                 
AY51                 -0.920               3.40                 0.0                  0.0                  0.0                 
BY7                  -0.685               3.11                 0.0                  0.0                  0.0                 
AY70                 -0.779               3.30                 0.0                  0.0                  0.0                 
BY130                -0.888               3.30                 0.0                  0.0                  0.0                 
BY129                -0.939               3.30                 0.0                  0.0                  0.0                 
BY128                -1.720               4.00                 0.0                  0.0                  0.0                 
BY128X               -1.274               3.52                 0.0                  0.0                  0.0                 
BY113                -1.521               4.20                 0.0                  0.0                  0.0                 
AY330                0.170                2.57                 0.0                  0.0                  0.0                 
AY57-5               0.473                1.96                 0.0                  0.0                  0.0                 
AY57-4               0.585                2.03                 0.0                  0.0                  0.0                 
BY188                -0.262               2.12                 0.0                  0.0                  0.0                 
AY151                -0.760               3.15                 0.0                  0.0                  0.0                 
BY181-4              -1.185               3.63                 0.0                  0.0                  0.0                 
AY64                 -0.566               2.75                 0.0                  0.0                  0.0                 
AY64-2               0.509                1.72                 0.0                  0.0                  0.0                 
AY63                 -0.856               2.99                 0.0                  0.0                  0.0                 
BY9                  -0.606               3.01                 0.0                  0.0                  0.0                 
AY63-2               -0.085               1.80                 0.0                  0.0                  0.0                 
BY14                 -0.854               3.32                 0.0                  0.0                  0.0                 
AY43                 -0.558               3.12                 0.0                  0.0                  0.0                 
BY22                 -0.783               3.72                 0.0                  0.0                  0.0                 
BY23                 -0.710               3.85                 0.0                  0.0                  0.0                 
AY114                -0.390               2.85                 0.0                  0.0                  0.0                 
BY189                -0.435               2.13                 0.0                  0.0                  0.0                 
BY15                 -0.746               3.32                 0.0                  0.0                  0.0                 
AY61                 -0.707               2.95                 0.0                  0.0                  0.0                 
BY26                 -0.908               4.05                 0.0                  0.0                  0.0                 
BY18                 -0.554               2.95                 0.0                  0.0                  0.0                 
AY75                 -1.027               3.72                 0.0                  0.0                  0.0                 
AY74A                -0.496               3.40                 0.0                  0.0                  0.0                 
AY66                 -0.782               2.95                 0.0                  0.0                  0.0                 
BY20                 -0.773               3.21                 0.0                  0.0                  0.0                 
AY49                 -0.817               3.23                 0.0                  0.0                  0.0                 
BY112                -0.896               3.62                 0.0                  0.0                  0.0                 
AY85                 -0.799               3.05                 0.0                  0.0                  0.0                 
AY44                 -0.707               3.20                 0.0                  0.0                  0.0                 
BY190                -0.326               2.14                 0.0                  0.0                  0.0                 
BY25                 -1.038               4.52                 0.0                  0.0                  0.0                 
AY67                 -0.716               2.98                 0.0                  0.0                  0.0                 
AY68                 -0.679               3.00                 0.0                  0.0                  0.0                 
BY24                 -1.015               4.31                 0.0                  0.0                  0.0                 
BY17                 -0.385               3.07                 0.0                  0.0                  0.0                 
BY12                 -0.748               3.11                 0.0                  0.0                  0.0                 
AY52                 -0.448               2.83                 0.0                  0.0                  0.0                 
AY86                 -0.960               3.05                 0.0                  0.0                  0.0                 
AY87A                -0.933               3.05                 0.0                  0.0                  0.0                 
AY88                 -0.968               3.12                 0.0                  0.0                  0.0                 
AY89                 -0.916               3.12                 0.0                  0.0                  0.0                 
AY90                 -0.745               3.15                 0.0                  0.0                  0.0                 
BY120                -1.401               3.80                 0.0                  0.0                  0.0                 
BY19                 2.276                3.11                 0.0                  0.0                  0.0                 
AY103                -0.811               2.95                 0.0                  0.0                  0.0                 
AY45                 -0.800               3.32                 0.0                  0.0                  0.0                 
BY126                -1.788               4.00                 0.0                  0.0                  0.0                 
BY125                -2.057               4.30                 0.0                  0.0                  0.0                 
BY123                -1.295               3.70                 0.0                  0.0                  0.0                 
BY16                 -0.667               3.07                 0.0                  0.0                  0.0                 
BY122                -1.745               4.10                 0.0                  0.0                  0.0                 
AYS12                -1.308               3.75                 0.0                  0.0                  0.0                 
AYS13                -1.140               3.80                 0.0                  0.0                  0.0                 
AYS14                -1.280               4.00                 0.0                  0.0                  0.0                 
AY94                 -0.917               3.20                 0.0                  0.0                  0.0                 
AY69                 -0.645               3.02                 0.0                  0.0                  0.0                 
AY71                 -0.459               2.85                 0.0                  0.0                  0.0                 
AY99                 -0.982               2.95                 0.0                  0.0                  0.0                 
AY76                 -1.515               3.80                 0.0                  0.0                  0.0                 
AY102                -0.853               2.92                 0.0                  0.0                  0.0                 
AY101                -0.713               2.93                 0.0                  0.0                  0.0                 
AY100                -0.731               2.94                 0.0                  0.0                  0.0                 
AY67-2               0.591                1.90                 0.0                  0.0                  0.0                 
AY68-1               0.689                1.72                 0.0                  0.0                  0.0                 
AY105                -0.707               2.95                 0.0                  0.0                  0.0                 
AY104                -0.702               2.85                 0.0                  0.0                  0.0                 
AY69-2               0.491                1.75                 0.0                  0.0                  0.0                 
AY53                 -0.328               2.67                 0.0                  0.0                  0.0                 
BY118                -1.359               3.82                 0.0                  0.0                  0.0                 
BY116                -1.286               3.80                 0.0                  0.0                  0.0                 
BY114                -1.470               4.10                 0.0                  0.0                  0.0                 
BY121                -1.831               4.10                 0.0                  0.0                  0.0                 
BY112X               -1.424               4.00                 0.0                  0.0                  0.0                 
BY111                -1.511               4.10                 0.0                  0.0                  0.0                 
BY21                 -0.421               3.12                 0.0                  0.0                  0.0                 
AY96                 -0.898               3.32                 0.0                  0.0                  0.0                 
AY95                 -1.072               3.35                 0.0                  0.0                  0.0                 
AY74--1              0.925                2.00                 0.0                  0.0                  0.0                 
AY74--2              0.957                1.98                 0.0                  0.0                  0.0                 
AY75-2               0.635                1.90                 0.0                  0.0                  0.0                 
AY91                 -0.232               2.95                 0.0                  0.0                  0.0                 
AY98                 -0.993               3.15                 0.0                  0.0                  0.0                 
AY97                 -0.946               3.18                 0.0                  0.0                  0.0                 
BY119                -1.405               3.85                 0.0                  0.0                  0.0                 
AYS3                 -0.548               3.03                 0.0                  0.0                  0.0                 
AYS4                 -0.187               2.70                 0.0                  0.0                  0.0                 
AY92                 -0.441               3.02                 0.0                  0.0                  0.0                 
BY191                -0.337               2.15                 0.0                  0.0                  0.0                 
BY110                -1.650               4.10                 0.0                  0.0                  0.0                 
BY109                -0.858               3.35                 0.0                  0.0                  0.0                 
BY107                -1.659               4.00                 0.0                  0.0                  0.0                 
BY106                -0.660               3.00                 0.0                  0.0                  0.0                 
BY105                -1.100               3.52                 0.0                  0.0                  0.0                 
BY104                -0.812               3.20                 0.0                  0.0                  0.0                 
AYS9                 -0.956               3.42                 0.0                  0.0                  0.0                 
AYS10                -0.975               3.40                 0.0                  0.0                  0.0                 
AYS11                -1.112               3.63                 0.0                  0.0                  0.0                 
AY80                 -1.104               3.13                 0.0                  0.0                  0.0                 
AY81                 -1.352               3.23                 0.0                  0.0                  0.0                 
AYS5                 -0.573               3.13                 0.0                  0.0                  0.0                 
AYS6                 -0.881               3.35                 0.0                  0.0                  0.0                 
AYS7                 -0.744               3.20                 0.0                  0.0                  0.0                 
AYS8                 -0.762               3.30                 0.0                  0.0                  0.0                 
AY72                 -0.564               2.85                 0.0                  0.0                  0.0                 
AY73                 -0.688               3.50                 0.0                  0.0                  0.0                 
AY66-2               1.032                1.35                 0.0                  0.0                  0.0                 
AY66-1               0.364                1.95                 0.0                  0.0                  0.0                 
AY83                 -1.287               3.08                 0.0                  0.0                  0.0                 
AY93                 -0.987               3.18                 0.0                  0.0                  0.0                 
AYS15-1              -1.177               4.00                 0.0                  0.0                  0.0                 
BY176-3              0.636                2.30                 0.0                  0.0                  0.0                 
BY181-3              -0.655               3.60                 0.0                  0.0                  0.0                 
AY322                -2.256               4.71                 0.0                  0.0                  0.0                 
AY323                -2.698               5.20                 0.0                  0.0                  0.0                 
AY82                 -1.028               3.21                 0.0                  0.0                  0.0                 
AYS2                 -0.152               2.63                 0.0                  0.0                  0.0                 
BY178A               -0.325               2.68                 0.0                  0.0                  0.0                 
BY108                -0.675               3.20                 0.0                  0.0                  0.0                 
AY75-1               0.770                1.88                 0.0                  0.0                  0.0                 
FP9-1                0.000                2.36                 0.0                  0.0                  0.0                 
FP10-1               0.000                2.34                 0.0                  0.0                  0.0                 
AY77                 -0.941               3.05                 0.0                  0.0                  0.0                 
AY78                 -0.953               3.06                 0.0                  0.0                  0.0                 
AY79                 -1.055               3.12                 0.0                  0.0                  0.0                 
AYS1                 -0.098               2.60                 0.0                  0.0                  0.0                 
AY318                -1.119               3.57                 0.0                  0.0                  0.0                 
AY317                -0.770               3.23                 0.0                  0.0                  0.0                 
BY175-2              0.323                2.20                 0.0                  0.0                  0.0                 
BY180-2              0.556                2.30                 0.0                  0.0                  0.0                 
BY177-4              0.269                2.20                 0.0                  0.0                  0.0                 
AY217                -0.766               3.75                 0.0                  0.0                  0.0                 
AY218                -0.685               3.75                 0.0                  0.0                  0.0                 
AY219                -0.812               3.68                 0.0                  0.0                  0.0                 
AY199                -0.233               2.45                 0.0                  0.0                  0.0                 
AY200                -0.193               2.35                 0.0                  0.0                  0.0                 
AY201                -0.099               2.45                 0.0                  0.0                  0.0                 
BY1-2                0.000                3.46                 0.0                  0.0                  0.0                 
AY203                -0.230               2.75                 0.0                  0.0                  0.0                 
AY204                -0.268               2.85                 0.0                  0.0                  0.0                 
AY198                -0.470               2.85                 0.0                  0.0                  0.0                 
AY201-1              0.633                1.62                 0.0                  0.0                  0.0                 
AY326                -1.639               4.12                 0.0                  0.0                  0.0                 
AY327                -1.518               4.14                 0.0                  0.0                  0.0                 
AY209                -0.556               2.95                 0.0                  0.0                  0.0                 
AY329                -1.414               4.20                 0.0                  0.0                  0.0                 
AY190                -0.338               3.25                 0.0                  0.0                  0.0                 
AY191                -0.553               3.15                 0.0                  0.0                  0.0                 
BY180                -0.341               3.13                 0.0                  0.0                  0.0                 
BY181-2              0.138                2.70                 0.0                  0.0                  0.0                 
AY328                -1.535               4.33                 0.0                  0.0                  0.0                 
AY205FP              -0.341               2.85                 0.0                  0.0                  0.0                 
AY206                -0.596               2.85                 0.0                  0.0                  0.0                 
AY207                -0.583               2.90                 0.0                  0.0                  0.0                 
AY208                -0.579               2.95                 0.0                  0.0                  0.0                 
AY197                -0.460               2.85                 0.0                  0.0                  0.0                 
BY169                -0.307               2.96                 0.0                  0.0                  0.0                 
BY170                -0.339               2.88                 0.0                  0.0                  0.0                 
BY182                -1.031               3.60                 0.0                  0.0                  0.0                 
AY210                -0.457               3.15                 0.0                  0.0                  0.0                 
AY192                -0.553               2.95                 0.0                  0.0                  0.0                 
AY193                -0.535               2.85                 0.0                  0.0                  0.0                 
AY194                -0.454               2.85                 0.0                  0.0                  0.0                 
AY195                -0.535               2.95                 0.0                  0.0                  0.0                 
AY196                -0.503               2.95                 0.0                  0.0                  0.0                 
AY325-1              -1.855               4.44                 0.0                  0.0                  0.0                 
BY178-3              0.236                2.20                 0.0                  0.0                  0.0                 
BY178A-3             0.879                1.60                 0.0                  0.0                  0.0                 
BY171                -0.457               2.90                 0.0                  0.0                  0.0                 
BY172                -0.547               3.01                 0.0                  0.0                  0.0                 
BY173                -0.610               3.03                 0.0                  0.0                  0.0                 
BY174                -0.690               3.15                 0.0                  0.0                  0.0                 
BY177                -0.648               3.02                 0.0                  0.0                  0.0                 
BY178                -0.211               2.63                 0.0                  0.0                  0.0                 
AY324                -2.153               4.60                 0.0                  0.0                  0.0                 
BY175                -1.300               3.71                 0.0                  0.0                  0.0                 
BY176                -0.209               2.62                 0.0                  0.0                  0.0                 
AY214                -0.800               4.25                 0.0                  0.0                  0.0                 
AY215                -1.091               4.25                 0.0                  0.0                  0.0                 
AY216                -0.853               3.85                 0.0                  0.0                  0.0                 
AY190-1              1.067                1.65                 0.0                  0.0                  0.0                 
AY191-1              0.690                1.65                 0.0                  0.0                  0.0                 
AY211                -0.624               3.55                 0.0                  0.0                  0.0                 
AY212                -0.579               3.65                 0.0                  0.0                  0.0                 
AY213                -0.470               3.85                 0.0                  0.0                  0.0                 
BY179                -0.464               3.03                 0.0                  0.0                  0.0                 
BY182-2              0.076                2.60                 0.0                  0.0                  0.0                 
BY179-2              1.048                1.60                 0.0                  0.0                  0.0                 
BY181                -0.923               3.80                 0.0                  0.0                  0.0                 
AY321                -1.435               3.97                 0.0                  0.0                  0.0                 
AY320                -1.336               3.73                 0.0                  0.0                  0.0                 
AY319                -1.097               3.60                 0.0                  0.0                  0.0                 
AY202X               -0.080               2.45                 0.0                  0.0                  0.0                 
AY31                 -0.956               3.28                 0.0                  0.0                  0.0                 
AY30                 -0.962               3.34                 0.0                  0.0                  0.0                 
AY18                 -1.686               4.22                 0.0                  0.0                  0.0                 
AY156                -0.658               2.65                 0.0                  0.0                  0.0                 
AY160                -0.929               2.85                 0.0                  0.0                  0.0                 
AY23                 -2.721               4.94                 0.0                  0.0                  0.0                 
AY22                 -2.352               4.50                 0.0                  0.0                  0.0                 
AY21                 -1.906               4.06                 0.0                  0.0                  0.0                 
AY20                 -1.926               4.12                 0.0                  0.0                  0.0                 
AY19                 0.000                2.39                 0.0                  0.0                  0.0                 
AY34                 -0.836               2.99                 0.0                  0.0                  0.0                 
AY33                 -0.970               3.10                 0.0                  0.0                  0.0                 
AY32                 -0.777               3.09                 0.0                  0.0                  0.0                 
AY159                -0.470               2.35                 0.0                  0.0                  0.0                 
AY158                -0.600               2.35                 0.0                  0.0                  0.0                 
AY157                -0.698               2.55                 0.0                  0.0                  0.0                 
AY37                 0.459                2.68                 0.0                  0.0                  0.0                 
AY36                 -0.504               2.57                 0.0                  0.0                  0.0                 
AY35                 -1.038               2.99                 0.0                  0.0                  0.0                 
AY38                 -0.156               2.60                 0.0                  0.0                  0.0                 
AY17                 -2.627               5.33                 0.0                  0.0                  0.0                 
AY16                 -1.781               4.55                 0.0                  0.0                  0.0                 
AY149                -0.725               2.95                 0.0                  0.0                  0.0                 
AY155                -0.690               2.75                 0.0                  0.0                  0.0                 
AY27                 -1.265               3.59                 0.0                  0.0                  0.0                 
AY26                 -1.151               3.50                 0.0                  0.0                  0.0                 
AY25                 -1.358               3.56                 0.0                  0.0                  0.0                 
AY24                 -1.697               3.80                 0.0                  0.0                  0.0                 
AY29                 -1.015               3.47                 0.0                  0.0                  0.0                 
AY28                 -1.218               3.58                 0.0                  0.0                  0.0                 
AY24-2               -0.237               2.56                 0.0                  0.0                  0.0                 
AY54-16              -0.320               3.03                 0.0                  0.0                  0.0                 
AY55-10              0.252                2.15                 0.0                  0.0                  0.0                 
AY55-6               -0.377               2.70                 0.0                  0.0                  0.0                 
AY55-11              -0.572               3.00                 0.0                  0.0                  0.0                 
AY54-14              0.390                2.20                 0.0                  0.0                  0.0                 
AY54-15              0.372                2.30                 0.0                  0.0                  0.0                 
AY54-11              0.036                2.20                 0.0                  0.0                  0.0                 
AY54-10              -0.225               2.50                 0.0                  0.0                  0.0                 
AY54-12              0.323                2.00                 0.0                  0.0                  0.0                 
AY55-5               -0.091               2.15                 0.0                  0.0                  0.0                 
AY55-8               0.361                2.15                 0.0                  0.0                  0.0                 
AY55-1               -0.145               2.10                 0.0                  0.0                  0.0                 
CY1206               -0.460               3.20                 0.0                  0.0                  0.0                 
CY1202               -1.427               3.96                 0.0                  0.0                  0.0                 
AY55-7               0.278                2.15                 0.0                  0.0                  0.0                 
AY55-9               0.331                2.15                 0.0                  0.0                  0.0                 
AY54-13              -0.272               2.95                 0.0                  0.0                  0.0                 
AY55                 -0.484               2.50                 0.0                  0.0                  0.0                 
AY55-2               -0.162               2.10                 0.0                  0.0                  0.0                 
AY55-4               0.060                2.10                 0.0                  0.0                  0.0                 
AY55-3               -0.540               2.67                 0.0                  0.0                  0.0                 
CY1216               1.761                2.02                 0.0                  0.0                  0.0                 
CY1213               1.274                2.30                 0.0                  0.0                  0.0                 
CY1211               0.913                2.40                 0.0                  0.0                  0.0                 
CY1208               -0.366               3.50                 0.0                  0.0                  0.0                 
AY86-2               -0.814               2.60                 0.0                  0.0                  0.0                 
AY86-3               -0.693               2.40                 0.0                  0.0                  0.0                 
AY86-7               -0.591               2.60                 0.0                  0.0                  0.0                 
CY1199               -1.615               3.96                 0.0                  0.0                  0.0                 
AY86-10              -0.387               2.75                 0.0                  0.0                  0.0                 
AY93-2               0.000                1.92                 0.0                  0.0                  0.0                 
AY93-3               0.000                1.92                 0.0                  0.0                  0.0                 
AY97-2               0.000                1.92                 0.0                  0.0                  0.0                 
CY145-22             0.000                1.92                 0.0                  0.0                  0.0                 

[OUTFALLS]
;Name               Elev            Type              Stage               Gated
;------------------- ------------------- ------------------- ------------------- -------------------
CYCSK23              -1.766               FIXED                0                    NO                  
CYCSK22              -1.656               FIXED                0                    NO                  
DY535                -2.288               FIXED                0                    NO                  
DY445                -2.974               FIXED                0                    NO                  
DY412                0.871                FIXED                0                    NO                  
AY131                -1.488               FIXED                0                    NO                  
BY113-1              -1.130               FIXED                0                    NO                  
BY181-5              -2.424               FIXED                0                    NO                  
BY112-1              -1.142               FIXED                0                    NO                  
BY26-2               -0.316               FIXED                0                    NO                  
BY25-2               -1.824               FIXED                0                    NO                  
AY213CSK             -0.386               FIXED                0                    NO                  
CSK4                 -1.586               FIXED                0                    NO                  
BY180-3              -0.934               FIXED                0                    NO                  
AY16-2               -2.231               FIXED                0                    NO                  
AY54-19              -1.411               FIXED                0                    NO                  
AY55-12              -1.816               FIXED                0                    NO                  
myoutfall1           -3.000               FIXED                0                    NO                  
myoutfall2           -1.600               FIXED                0                    NO                  

[STORAGE]
;Name                Elev           Ymax            Y0           Shape               Acurve           EvapCoeff           SeepageRate
;-------------------- ------------------- ------------------- ------------------- ------------------- ------------------- ------------------- -------------------
大渠荡                  -6.00                5.80                 3.50                 FUNCTIONAL           大渠荡_Curve            0.80                 0.005               
大洋港                  -6.00                5.80                 3.50                 FUNCTIONAL           大洋港_Curve            0.80                 0.005               
甘溪市河                 -6.00                5.80                 3.50                 FUNCTIONAL           甘溪市河_Curve           0.80                 0.005               
三白荡                  -6.00                5.80                 3.50                 FUNCTIONAL           三白荡_Curve            0.80                 0.005               
行政河                  -6.00                5.80                 3.50                 FUNCTIONAL           行政河_Curve            0.80                 0.005               
洋砂荡                  -6.00                5.80                 3.50                 FUNCTIONAL           洋砂荡_Curve            0.80                 0.005               

[CONDUITS]
;Name               Node1           Node2          Length            N           Z1          Z2          Q0            Qmax
;------------------- ------------------- ------------------- ------------------- ------------------- ------------------- ------------------- ------------------- -------------------
AY42_AY43            AY42                 AY43                 24.66                0.01                 1.00                 1.17                 0.00                 0.00                
AY205FP_AY206        AY205FP              AY206                32.80                0.01                 1.07                 1.08                 0.00                 0.00                
CY82_CY81            CY82                 CY81                 0.97                 0.01                 1.12                 1.55                 0.00                 0.00                
CY99_CY102           CY99                 CY102                39.19                0.01                 0.98                 1.25                 0.00                 0.00                
BY129_BY128          BY129                BY128                30.92                0.01                 1.00                 1.81                 0.00                 0.00                
AY65_AY64            AY65                 AY64                 33.00                0.01                 1.10                 1.08                 0.00                 0.00                
BY181-3_BY181-4      BY181-3              BY181-4              11.62                0.01                 0.97                 1.00                 0.00                 0.00                
AY97_AY97-2          AY97                 AY97-2               12.33                0.01                 1.16                 0.21                 0.00                 0.00                
AY55-7_AY55-6        AY55-7               AY55-6               15.18                0.01                 1.02                 1.51                 0.00                 0.00                
BY178A-3_BY178A      BY178A-3             BY178A               12.12                0.01                 0.96                 1.35                 0.00                 0.00                
CY81_CY84            CY81                 CY84                 24.97                0.01                 0.96                 1.05                 0.00                 0.00                
DY412_DY411          DY412                DY411                40.52                0.01                 -0.21                1.06                 0.00                 0.00                
AYS3_AYS4            AYS3                 AYS4                 31.01                0.01                 1.01                 0.94                 0.00                 0.00                
AYS13_AYS14          AYS13                AYS14                29.16                0.01                 1.12                 1.11                 0.00                 0.00                
AY55-11_AY55-12      AY55-11              AY55-12              39.53                0.01                 0.97                 0.98                 0.00                 0.00                
AY110_AY109          AY110                AY109                19.33                0.01                 1.18                 1.18                 0.00                 0.00                
AY191-1_AY191        AY191-1              AY191                0.75                 0.01                 0.97                 2.28                 0.00                 0.00                
CY101_CY100          CY101                CY100                8.19                 0.01                 0.99                 0.99                 0.00                 0.00                
GY243_GY245          GY243                GY245                30.02                0.01                 1.38                 0.95                 0.00                 0.00                
CY106_CYCSK23        CY106                CYCSK23              5.40                 0.01                 1.08                 -0.04                0.00                 0.00                
BY21_BY22            BY21                 BY22                 33.19                0.01                 1.83                 2.63                 0.00                 0.00                
AY133_AY132          AY133                AY132                41.48                0.01                 0.67                 0.58                 0.00                 0.00                
AY19_AY18            AY19                 AY18                 35.29                0.01                 -0.74                0.97                 0.00                 0.00                
AY68_AY69            AY68                 AY69                 30.99                0.01                 1.13                 1.15                 0.00                 0.00                
BY106_BY105          BY106                BY105                38.67                0.01                 0.98                 1.01                 0.00                 0.00                
AY37_AY36            AY37                 AY36                 25.50                0.01                 1.03                 0.89                 0.00                 0.00                
BY7_BY8              BY7                  BY8                  33.10                0.01                 1.92                 1.82                 0.00                 0.00                
AY51_BY116           AY51                 BY116                32.15                0.01                 0.91                 1.29                 0.00                 0.00                
CY163_CY164          CY163                CY164                20.29                0.01                 0.93                 0.96                 0.00                 0.00                
CY88_CY87            CY88                 CY87                 1.61                 0.01                 0.99                 1.29                 0.00                 0.00                
BY11_BY12            BY11                 BY12                 32.86                0.01                 2.00                 2.01                 0.00                 0.00                
CY1206_CY1208        CY1206               CY1208               39.59                0.01                 0.93                 0.97                 0.00                 0.00                
CY1211_CY1213        CY1211               CY1213               41.61                0.01                 0.97                 0.97                 0.00                 0.00                
AY22_AY21            AY22                 AY21                 37.38                0.01                 1.62                 1.08                 0.00                 0.00                
CY145-15_CY145-17    CY145-15             CY145-17             11.59                0.01                 1.00                 0.97                 0.00                 0.00                
BY114_BY113          BY114                BY113                14.44                0.01                 1.11                 0.91                 0.00                 0.00                
CY164_CY165          CY164                CY165                60.16                0.01                 0.92                 1.11                 0.00                 0.00                
CY70_CY69            CY70                 CY69                 1.75                 0.01                 1.01                 2.24                 0.00                 0.00                
AY59_AY58            AY59                 AY58                 28.13                0.01                 1.33                 1.15                 0.00                 0.00                
GY245_GY247          GY245                GY247                8.28                 0.01                 0.97                 0.95                 0.00                 0.00                
AY215_AY216          AY215                AY216                33.91                0.01                 1.07                 0.98                 0.00                 0.00                
CY145-7_CY145-9      CY145-7              CY145-9              19.01                0.01                 0.97                 1.00                 0.00                 0.00                
AY76_AY75            AY76                 AY75                 20.99                0.01                 1.18                 1.20                 0.00                 0.00                
BY26-2_BY26          BY26-2               BY26                 97.66                0.01                 2.06                 1.80                 0.00                 0.00                
GY210_GY212          GY210                GY212                29.88                0.01                 1.20                 1.22                 0.00                 0.00                
AY21_AY20            AY21                 AY20                 31.06                0.01                 1.09                 1.13                 0.00                 0.00                
CY78_CY81            CY78                 CY81                 40.88                0.01                 0.97                 1.01                 0.00                 0.00                
GY232_GY234          GY232                GY234                30.23                0.01                 1.05                 1.24                 0.00                 0.00                
AY74--2_AY74A        AY74--2              AY74A                10.88                0.01                 1.00                 2.23                 0.00                 0.00                
CY80_CY79            CY80                 CY79                 8.24                 0.01                 0.99                 1.07                 0.00                 0.00                
GY255_GY258          GY255                GY258                42.45                0.01                 0.96                 1.15                 0.00                 0.00                
AY208_AY209          AY208                AY209                32.97                0.01                 1.07                 1.08                 0.00                 0.00                
GY247_GY249          GY247                GY249                3.24                 0.01                 0.95                 1.06                 0.00                 0.00                
BY109_BY108          BY109                BY108                27.75                0.01                 1.00                 0.96                 0.00                 0.00                
AY206_AY207          AY206                AY207                32.74                0.01                 1.08                 1.08                 0.00                 0.00                
DY513_DY511          DY513                DY511                60.30                0.01                 0.98                 0.93                 0.00                 0.00                
CY92_CY91            CY92                 CY91                 8.22                 0.01                 0.99                 1.00                 0.00                 0.00                
DY426_DY431          DY426                DY431                30.37                0.01                 1.01                 0.96                 0.00                 0.00                
CY1199_CY1202        CY1199               CY1202               37.15                0.01                 0.94                 0.99                 0.00                 0.00                
AYS6_AYS7            AYS6                 AYS7                 29.26                0.01                 1.03                 0.94                 0.00                 0.00                
CY74_CY75            CY74                 CY75                 38.60                0.01                 1.01                 0.90                 0.00                 0.00                
AY63-2_AY63          AY63-2               AY63                 9.61                 0.01                 0.49                 1.40                 0.00                 0.00                
BY15_BY16            BY15                 BY16                 33.13                0.01                 2.03                 1.81                 0.00                 0.00                
AY318_AY319          AY318                AY319                62.06                0.01                 1.15                 1.18                 0.00                 0.00                
AY159_AY158          AY159                AY158                35.97                0.01                 1.07                 1.13                 0.00                 0.00                
BY12_BY13            BY12                 BY13                 33.12                0.01                 2.19                 2.58                 0.00                 0.00                
AY66-2_AY66          AY66-2               AY66                 0.84                 0.01                 0.48                 1.92                 0.00                 0.00                
AY30_AY29            AY30                 AY29                 26.15                0.01                 1.03                 1.06                 0.00                 0.00                
CY159_CY161          CY159                CY161                29.09                0.01                 0.93                 0.92                 0.00                 0.00                
BY29_BY30            BY29                 BY30                 32.48                0.01                 0.95                 0.96                 0.00                 0.00                
DY533_DY531          DY533                DY531                30.21                0.01                 0.93                 1.05                 0.00                 0.00                
DY433_DY435          DY433                DY435                41.52                0.01                 1.01                 0.96                 0.00                 0.00                
AY93_AY93-2          AY93                 AY93-2               11.79                0.01                 1.24                 0.09                 0.00                 0.00                
AY324_AY325-1        AY324                AY325-1              28.43                0.01                 1.35                 0.98                 0.00                 0.00                
AY26_AY25            AY26                 AY25                 37.28                0.01                 0.87                 1.04                 0.00                 0.00                
CY64T1_CY62T1        CY64T1               CY62T1               20.05                0.01                 0.98                 1.04                 0.00                 0.00                
GY236_GY238          GY236                GY238                29.75                0.01                 1.04                 1.20                 0.00                 0.00                
AY94_AY93            AY94                 AY93                 19.02                0.01                 0.98                 0.89                 0.00                 0.00                
CY133_CY132          CY133                CY132                19.43                0.01                 1.63                 1.60                 0.00                 0.00                
AY127_AY126          AY127                AY126                22.62                0.01                 0.92                 1.02                 0.00                 0.00                
DY531_DY529          DY531                DY529                29.83                0.01                 1.04                 0.60                 0.00                 0.00                
GY238_GY240          GY238                GY240                29.82                0.01                 1.18                 1.91                 0.00                 0.00                
AY326_AY327          AY326                AY327                29.44                0.01                 1.07                 1.19                 0.00                 0.00                
AY54-11_AY54-10      AY54-11              AY54-10              9.93                 0.01                 0.97                 1.18                 0.00                 0.00                
BY4_BY5              BY4                  BY5                  32.77                0.01                 1.66                 1.83                 0.00                 0.00                
AYS1_AYS2            AYS1                 AYS2                 28.25                0.01                 1.01                 0.86                 0.00                 0.00                
CY79_CY78            CY79                 CY78                 0.83                 0.01                 1.07                 2.06                 0.00                 0.00                
BY177_BY178          BY177                BY178                30.63                0.01                 0.97                 0.57                 0.00                 0.00                
CY72T1_CY71T1        CY72T1               CY71T1               14.44                0.01                 0.97                 1.08                 0.00                 0.00                
CY145-6_CY145-7      CY145-6              CY145-7              23.03                0.01                 0.98                 0.97                 0.00                 0.00                
GY223_DY415          GY223                DY415                29.97                0.01                 0.95                 1.07                 0.00                 0.00                
CY121_CY120          CY121                CY120                0.92                 0.01                 0.99                 2.51                 0.00                 0.00                
AY97_AY96            AY97                 AY96                 19.16                0.01                 1.04                 0.98                 0.00                 0.00                
CY75_CY78            CY75                 CY78                 40.67                0.01                 0.96                 0.97                 0.00                 0.00                
CY156_CY157          CY156                CY157                17.68                0.01                 1.01                 1.00                 0.00                 0.00                
AY322_AY323          AY322                AY323                31.82                0.01                 1.96                 1.25                 0.00                 0.00                
BY17_BY18            BY17                 BY18                 33.62                0.01                 1.78                 2.13                 0.00                 0.00                
AY158_AY157          AY158                AY157                28.21                0.01                 1.08                 1.18                 0.00                 0.00                
CY76_CY75            CY76                 CY75                 1.04                 0.01                 1.13                 1.90                 0.00                 0.00                
AY201-1_AY201        AY201-1              AY201                0.64                 0.01                 1.00                 1.57                 0.00                 0.00                
DY411_DY409          DY411                DY409                27.87                0.01                 1.25                 0.89                 0.00                 0.00                
GY234_GY236          GY234                GY236                30.07                0.01                 1.26                 1.05                 0.00                 0.00                
AY54-3_AY54-2        AY54-3               AY54-2               17.78                0.01                 0.97                 1.12                 0.00                 0.00                
AY38_AY37            AY38                 AY37                 25.33                0.01                 0.97                 1.02                 0.00                 0.00                
AY55-5_AY55-3        AY55-5               AY55-3               8.84                 0.01                 1.09                 1.44                 0.00                 0.00                
AY130_AY129          AY130                AY129                12.73                0.01                 1.25                 1.08                 0.00                 0.00                
AY31_AY30            AY31                 AY30                 30.85                0.01                 0.98                 1.02                 0.00                 0.00                
AY69_AY70            AY69                 AY70                 33.21                0.01                 1.20                 1.28                 0.00                 0.00                
DY421_DY423          DY421                DY423                29.59                0.01                 1.02                 1.01                 0.00                 0.00                
CY145-7_CY145-8      CY145-7              CY145-8              12.27                0.01                 0.97                 1.20                 0.00                 0.00                
AY196_AY197          AY196                AY197                33.09                0.01                 1.08                 1.07                 0.00                 0.00                
CY73_CY72            CY73                 CY72                 8.21                 0.01                 1.34                 1.19                 0.00                 0.00                
CY91_CY90            CY91                 CY90                 1.23                 0.01                 1.00                 1.66                 0.00                 0.00                
CY139_CY137          CY139                CY137                28.09                0.01                 1.41                 1.65                 0.00                 0.00                
AY194_AY195          AY194                AY195                33.31                0.01                 1.08                 1.08                 0.00                 0.00                
AY132_CY145-18       AY132                CY145-18             21.51                0.01                 1.73                 0.91                 0.00                 0.00                
AY202X_AY203         AY202X               AY203                34.90                0.01                 1.07                 0.97                 0.00                 0.00                
DY415_DY414          DY415                DY414                120.12               0.01                 0.97                 0.95                 0.00                 0.00                
DY402_DY418          DY402                DY418                34.68                0.01                 0.95                 0.99                 0.00                 0.00                
AY24_AY23            AY24                 AY23                 23.22                0.01                 0.94                 1.88                 0.00                 0.00                
AY23_AY22            AY23                 AY22                 37.22                0.01                 1.99                 0.92                 0.00                 0.00                
BY176_BY177          BY176                BY177                27.68                0.01                 0.96                 1.39                 0.00                 0.00                
CY120_CY125          CY120                CY125                42.10                0.01                 1.00                 -0.10                0.00                 0.00                
AY57-1_AY57          AY57-1               AY57                 12.16                0.01                 0.98                 2.10                 0.00                 0.00                
BY180-2_BY180        BY180-2              BY180                12.57                0.01                 0.97                 1.59                 0.00                 0.00                
DY524_DY522          DY524                DY522                29.98                0.01                 1.03                 1.02                 0.00                 0.00                
AY57-4_AY57          AY57-4               AY57                 10.69                0.01                 0.99                 2.00                 0.00                 0.00                
BY6_BY7              BY6                  BY7                  67.72                0.01                 1.78                 1.91                 0.00                 0.00                
AY65_AY23            AY65                 AY23                 25.81                0.01                 1.10                 3.11                 0.00                 0.00                
BY178_BY178A         BY178                BY178A               28.79                0.01                 0.96                 0.96                 0.00                 0.00                
AY86-3_AY86-2        AY86-3               AY86-2               6.23                 0.01                 0.97                 1.00                 0.00                 0.00                
DY515_DY513          DY515                DY513                30.04                0.01                 1.03                 0.99                 0.00                 0.00                
BY112X_BY111         BY112X               BY111                40.77                0.01                 1.56                 1.89                 0.00                 0.00                
AY112_AY111          AY112                AY111                19.75                0.01                 0.95                 1.00                 0.00                 0.00                
CY1202_CY1206        CY1202               CY1206               34.05                0.01                 1.79                 0.93                 0.00                 0.00                
AY55-10_AY55-6       AY55-10              AY55-6               12.61                0.01                 1.03                 1.46                 0.00                 0.00                
GY218_GY223          GY218                GY223                30.01                0.01                 0.96                 0.98                 0.00                 0.00                
GY230_GY232          GY230                GY232                29.69                0.01                 1.04                 1.08                 0.00                 0.00                
AY214_AY215          AY214                AY215                64.99                0.01                 1.07                 1.07                 0.00                 0.00                
CY90_CY93            CY90                 CY93                 37.83                0.01                 1.28                 0.99                 0.00                 0.00                
DY393_DY392          DY393                DY392                1.89                 0.01                 1.32                 0.99                 0.00                 0.00                
CY106_CY108          CY106                CY108                41.43                0.01                 0.96                 1.13                 0.00                 0.00                
AY88_AY89            AY88                 AY89                 27.64                0.01                 1.92                 2.02                 0.00                 0.00                
BY174_AY322          BY174                AY322                20.26                0.01                 0.96                 2.43                 0.00                 0.00                
CY165_CY149          CY165                CY149                31.11                0.01                 0.93                 1.07                 0.00                 0.00                
BY126_BY125          BY126                BY125                31.95                0.01                 1.80                 1.80                 0.00                 0.00                
CY147_AY142          CY147                AY142                20.95                0.01                 0.92                 0.33                 0.00                 0.00                
AY96_AY95            AY96                 AY95                 20.39                0.01                 0.98                 1.12                 0.00                 0.00                
AY18_AY17            AY18                 AY17                 27.12                0.01                 0.97                 2.03                 0.00                 0.00                
BY9_BY10             BY9                  BY10                 30.29                0.01                 1.89                 1.75                 0.00                 0.00                
BY125_AY60           BY125                AY60                 26.94                0.01                 1.80                 1.41                 0.00                 0.00                
GY202_GY205          GY202                GY205                30.22                0.01                 1.60                 1.40                 0.00                 0.00                
AY54-2_AY54          AY54-2               AY54                 1.13                 0.01                 1.12                 1.34                 0.00                 0.00                
BY26_BY27            BY26                 BY27                 32.96                0.01                 1.00                 0.95                 0.00                 0.00                
GY200_GY202          GY200                GY202                29.93                0.01                 0.95                 1.58                 0.00                 0.00                
CY110_CY109          CY110                CY109                8.11                 0.01                 1.02                 1.16                 0.00                 0.00                
AY218_AY219          AY218                AY219                33.24                0.01                 1.08                 1.10                 0.00                 0.00                
AY138_AY137          AY138                AY137                21.60                0.01                 0.13                 1.47                 0.00                 0.00                
AY149_AY148          AY149                AY148                29.02                0.01                 1.07                 1.08                 0.00                 0.00                
DY509_DY507          DY509                DY507                29.97                0.01                 1.02                 0.99                 0.00                 0.00                
BY16_BY17            BY16                 BY17                 32.99                0.01                 1.82                 1.78                 0.00                 0.00                
BY181-2_BY181        BY181-2              BY181                12.28                0.01                 1.46                 2.46                 0.00                 0.00                
AY63_AY62            AY63                 AY62                 29.16                0.01                 1.08                 1.08                 0.00                 0.00                
BY181-3_BY181        BY181-3              BY181                14.32                0.01                 0.97                 1.17                 0.00                 0.00                
CY157_CY157-1        CY157                CY157-1              9.41                 0.01                 0.87                 0.96                 0.00                 0.00                
DY405_DY402          DY405                DY402                27.22                0.01                 1.17                 1.00                 0.00                 0.00                
AY64-2_AY64          AY64-2               AY64                 11.44                0.01                 0.96                 1.84                 0.00                 0.00                
AY86-7_AY86-3        AY86-7               AY86-3               33.03                0.01                 0.97                 0.99                 0.00                 0.00                
AY128_AY127          AY128                AY127                20.08                0.01                 1.52                 1.02                 0.00                 0.00                
AY103_AY102          AY103                AY102                20.26                0.01                 1.07                 1.04                 0.00                 0.00                
DY535_DY533          DY535                DY533                32.51                0.01                 3.11                 0.96                 0.00                 0.00                
CY116_CY115          CY116                CY115                8.32                 0.01                 0.98                 0.99                 0.00                 0.00                
AY190-1_AY190        AY190-1              AY190                0.87                 0.01                 0.98                 2.38                 0.00                 0.00                
AY157_AY156          AY157                AY156                29.64                0.01                 1.08                 1.08                 0.00                 0.00                
CY108_CY111          CY108                CY111                40.75                0.01                 1.13                 0.97                 0.00                 0.00                
CY89_CY88            CY89                 CY88                 8.20                 0.01                 0.99                 0.99                 0.00                 0.00                
AY321_AY322          AY321                AY322                47.61                0.01                 1.02                 2.46                 0.00                 0.00                
BY172_BY173          BY172                BY173                36.92                0.01                 0.97                 0.96                 0.00                 0.00                
AY46_AY47            AY46                 AY47                 23.37                0.01                 1.06                 1.11                 0.00                 0.00                
BY178-3_BY178        BY178-3              BY178                12.15                0.01                 0.97                 1.07                 0.00                 0.00                
DY388_DY386          DY388                DY386                29.72                0.01                 1.06                 0.99                 0.00                 0.00                
AY77_AY78            AY77                 AY78                 19.64                0.01                 1.17                 1.18                 0.00                 0.00                
FP10-1_AY76          FP10-1               AY76                 8.54                 0.01                 1.66                 3.12                 0.00                 0.00                
AY329_CSK4           AY329                CSK4                 13.23                0.01                 0.95                 0.75                 0.00                 0.00                
AY107_AY106          AY107                AY106                19.48                0.01                 1.07                 1.08                 0.00                 0.00                
AY98_AY99            AY98                 AY99                 29.48                0.01                 1.07                 1.27                 0.00                 0.00                
DY505_DY502          DY505                DY502                30.11                0.01                 0.97                 0.93                 0.00                 0.00                
AY153_AY152          AY153                AY152                19.42                0.01                 1.09                 1.07                 0.00                 0.00                
AY160_AY159          AY160                AY159                30.85                0.01                 1.48                 1.07                 0.00                 0.00                
BY22_BY23            BY22                 BY23                 33.18                0.01                 2.63                 1.81                 0.00                 0.00                
AY108_AY107          AY108                AY107                18.50                0.01                 1.17                 1.07                 0.00                 0.00                
AY82_AY83            AY82                 AY83                 19.20                0.01                 1.04                 0.91                 0.00                 0.00                
CY130-2_CY130-1      CY130-2              CY130-1              16.09                0.01                 0.99                 2.19                 0.00                 0.00                
AY51_AY52            AY51                 AY52                 20.75                0.01                 1.64                 1.07                 0.00                 0.00                
AY71_AY72            AY71                 AY72                 34.85                0.01                 1.08                 1.07                 0.00                 0.00                
AY145_AY144          AY145                AY144                20.62                0.01                 1.02                 1.02                 0.00                 0.00                
CY135_CY133          CY135                CY133                19.49                0.01                 1.67                 1.63                 0.00                 0.00                
CY74T1_CY72T1        CY74T1               CY72T1               24.04                0.01                 1.03                 1.04                 0.00                 0.00                
CY97_CY96            CY97                 CY96                 1.14                 0.01                 0.98                 1.64                 0.00                 0.00                
BY24_BY25            BY24                 BY25                 31.27                0.01                 1.81                 1.82                 0.00                 0.00                
AY149_AY155          AY149                AY155                23.02                0.01                 1.18                 1.08                 0.00                 0.00                
AY137_AY136          AY137                AY136                21.06                0.01                 1.47                 1.38                 0.00                 0.00                
CY128_CY124          CY128                CY124                10.69                0.01                 1.20                 2.08                 0.00                 0.00                
CY145-13_CY145-15    CY145-13             CY145-15             10.19                0.01                 0.98                 0.97                 0.00                 0.00                
AY135_AY134          AY135                AY134                9.35                 0.01                 1.08                 0.97                 0.00                 0.00                
AYS8_AYS9            AYS8                 AYS9                 25.29                0.01                 0.92                 1.04                 0.00                 0.00                
AY86_AY87A           AY86                 AY87A                18.19                0.01                 1.85                 1.85                 0.00                 0.00                
AY72_AY73            AY72                 AY73                 34.95                0.01                 1.17                 1.53                 0.00                 0.00                
BY14_BY15            BY14                 BY15                 33.35                0.01                 2.60                 2.03                 0.00                 0.00                
CY145_CY145-1        CY145                CY145-1              25.29                0.01                 0.97                 0.98                 0.00                 0.00                
CY104_CY103          CY104                CY103                8.19                 0.01                 1.02                 1.02                 0.00                 0.00                
CY111_CY114          CY111                CY114                41.61                0.01                 1.00                 1.18                 0.00                 0.00                
DY419_DY421          DY419                DY421                29.13                0.01                 1.01                 1.02                 0.00                 0.00                
BY2_BY3              BY2                  BY3                  32.91                0.01                 1.56                 1.91                 0.00                 0.00                
AYS10_AYS11          AYS10                AYS11                29.34                0.01                 1.02                 1.15                 0.00                 0.00                
AY44_AY45            AY44                 AY45                 24.82                0.01                 0.99                 0.96                 0.00                 0.00                
BY105_BY104          BY105                BY104                41.14                0.01                 1.31                 1.25                 0.00                 0.00                
AY90_CY156           AY90                 CY156                30.81                0.01                 0.90                 1.04                 0.00                 0.00                
DY502_DY503          DY502                DY503                30.11                0.01                 0.88                 0.97                 0.00                 0.00                
DY386_DY384          DY386                DY384                32.10                0.01                 0.97                 1.18                 0.00                 0.00                
CY71_CY70            CY71                 CY70                 9.32                 0.01                 1.02                 1.01                 0.00                 0.00                
CY102_CY106          CY102                CY106                40.42                0.01                 1.03                 1.98                 0.00                 0.00                
BY108_BY107          BY108                BY107                42.16                0.01                 0.86                 1.99                 0.00                 0.00                
BY180_BY180-3        BY180                BY180-3              30.84                0.01                 0.96                 1.84                 0.00                 0.00                
DY425_DY437          DY425                DY437                269.74               0.01                 1.00                 0.96                 0.00                 0.00                
AY155_AY156          AY155                AY156                30.58                0.01                 1.08                 1.08                 0.00                 0.00                
AY139_AY138          AY139                AY138                21.48                0.01                 0.33                 0.23                 0.00                 0.00                
AY80_AY81            AY80                 AY81                 32.51                0.01                 0.93                 1.03                 0.00                 0.00                
AY126_AY125          AY126                AY125                20.28                0.01                 1.02                 1.02                 0.00                 0.00                
AY48_AY49            AY48                 AY49                 33.05                0.01                 1.09                 1.33                 0.00                 0.00                
BY175_BY176          BY175                BY176                36.91                0.01                 0.96                 -0.06                0.00                 0.00                
AY54-16_AY54-19      AY54-16              AY54-19              34.38                0.01                 0.98                 0.97                 0.00                 0.00                
CY126_CY128          CY126                CY128                11.92                0.01                 1.09                 1.17                 0.00                 0.00                
BY169_BY170          BY169                BY170                40.98                0.01                 -0.03                0.97                 0.00                 0.00                
AY75-2_AY75          AY75-2               AY75                 4.41                 0.01                 0.97                 2.65                 0.00                 0.00                
AY75-1_AY75          AY75-1               AY75                 8.62                 0.01                 0.97                 2.65                 0.00                 0.00                
AY190_AY191          AY190                AY191                32.93                0.01                 1.17                 1.06                 0.00                 0.00                
BY179_BY180          BY179                BY180                26.21                0.01                 0.97                 0.96                 0.00                 0.00                
CY145-20_CY145-18    CY145-20             CY145-18             4.41                 0.01                 1.00                 3.15                 0.00                 0.00                
AY117_AY116          AY117                AY116                17.40                0.01                 1.05                 0.95                 0.00                 0.00                
DY431_DY433          DY431                DY433                29.37                0.01                 1.07                 1.02                 0.00                 0.00                
AY114_AY113          AY114                AY113                19.20                0.01                 0.95                 1.00                 0.00                 0.00                
BY20_BY21            BY20                 BY21                 28.86                0.01                 1.91                 1.83                 0.00                 0.00                
AY115_AY114          AY115                AY114                19.05                0.01                 1.05                 1.05                 0.00                 0.00                
AY75_AY74A           AY75                 AY74A                15.64                0.01                 1.20                 0.98                 0.00                 0.00                
DY437_DY441          DY437                DY441                120.61               0.01                 0.98                 0.97                 0.00                 0.00                
CY62T2_AY139         CY62T2               AY139                28.54                0.01                 -0.51                0.43                 0.00                 0.00                
AY197_AY198          AY197                AY198                33.13                0.01                 1.17                 1.07                 0.00                 0.00                
CY109_CY108          CY109                CY108                1.18                 0.01                 0.98                 2.64                 0.00                 0.00                
AY78_AY79            AY78                 AY79                 20.61                0.01                 1.08                 1.04                 0.00                 0.00                
BY113_BY113-1        BY113                BY113-1              17.69                0.01                 0.91                 1.71                 0.00                 0.00                
AY134_AY133          AY134                AY133                12.89                0.01                 0.87                 0.77                 0.00                 0.00                
AY131_AY130          AY131                AY130                9.65                 0.01                 1.48                 1.25                 0.00                 0.00                
CY157-1_AY91         CY157-1              AY91                 13.99                0.01                 0.92                 1.07                 0.00                 0.00                
DY418_DY419          DY418                DY419                32.13                0.01                 1.00                 1.22                 0.00                 0.00                
AY148_AY147          AY148                AY147                20.09                0.01                 0.98                 0.98                 0.00                 0.00                
GY194_GY196          GY194                GY196                29.68                0.01                 0.72                 1.29                 0.00                 0.00                
CY107_CY105          CY107                CY105                8.18                 0.01                 0.98                 1.00                 0.00                 0.00                
AY74--1_AY74A        AY74--1              AY74A                7.83                 0.01                 0.97                 2.23                 0.00                 0.00                
CY145-10_CY145-13    CY145-10             CY145-13             16.73                0.01                 0.97                 0.98                 0.00                 0.00                
BY107_BY106          BY107                BY106                33.92                0.01                 1.99                 0.98                 0.00                 0.00                
AY201_AY202X         AY201                AY202X               64.98                0.01                 1.07                 1.07                 0.00                 0.00                
BY181_BY182          BY181                BY182                35.13                0.01                 0.96                 1.33                 0.00                 0.00                
CY145-17_CY145-18    CY145-17             CY145-18             35.85                0.01                 0.97                 0.98                 0.00                 0.00                
AY20_AY19            AY20                 AY19                 39.24                0.01                 1.09                 -0.74                0.00                 0.00                
CY105_CY106          CY105                CY106                1.13                 0.01                 1.00                 2.86                 0.00                 0.00                
GY205_GY207          GY205                GY207                29.57                0.01                 1.38                 1.10                 0.00                 0.00                
CY86_CY85            CY86                 CY85                 8.26                 0.01                 1.01                 1.14                 0.00                 0.00                
AY85_AY86            AY85                 AY86                 20.49                0.01                 1.85                 1.85                 0.00                 0.00                
CY112_CY111          CY112                CY111                0.80                 0.01                 1.00                 2.38                 0.00                 0.00                
AY28_AY27            AY28                 AY27                 31.30                0.01                 1.09                 1.02                 0.00                 0.00                
DY520_DY517          DY520                DY517                59.99                0.01                 0.99                 1.03                 0.00                 0.00                
DY384_DY383          DY384                DY383                22.73                0.01                 1.18                 1.05                 0.00                 0.00                
GY251_GY255          GY251                GY255                47.04                0.01                 1.02                 0.95                 0.00                 0.00                
AY55-4_AY55-3        AY55-4               AY55-3               6.21                 0.01                 0.97                 1.45                 0.00                 0.00                
CY98_CY97            CY98                 CY97                 8.34                 0.01                 0.99                 0.98                 0.00                 0.00                
AY34_AY33            AY34                 AY33                 28.70                0.01                 1.03                 0.86                 0.00                 0.00                
GY226_GY227          GY226                GY227                3.24                 0.01                 0.95                 1.02                 0.00                 0.00                
DY398_DY396          DY398                DY396                31.87                0.01                 1.00                 1.07                 0.00                 0.00                
BY173_BY174          BY173                BY174                19.94                0.01                 0.96                 1.06                 0.00                 0.00                
DY423_DY426          DY423                DY426                29.89                0.01                 1.01                 1.01                 0.00                 0.00                
DY428_DY425          DY428                DY425                9.64                 0.01                 2.16                 1.62                 0.00                 0.00                
AY198_AY199          AY198                AY199                32.00                0.01                 1.07                 1.08                 0.00                 0.00                
CY137_CY135          CY137                CY135                30.08                0.01                 1.65                 1.67                 0.00                 0.00                
AY207_AY208          AY207                AY208                32.83                0.01                 1.08                 1.07                 0.00                 0.00                
AY86-2_AY86          AY86-2               AY86                 10.18                0.01                 0.98                 1.00                 0.00                 0.00                
AYS12_AYS13          AYS12                AYS13                27.42                0.01                 1.09                 1.08                 0.00                 0.00                
AY54-15_AY54-13      AY54-15              AY54-13              7.57                 0.01                 0.98                 1.52                 0.00                 0.00                
GY258_GY260          GY258                GY260                11.01                0.01                 1.19                 0.96                 0.00                 0.00                
BY1_BY2              BY1                  BY2                  40.81                0.01                 1.81                 1.31                 0.00                 0.00                
CY87_CY90            CY87                 CY90                 30.37                0.01                 0.93                 1.28                 0.00                 0.00                
AY55-2_AY55          AY55-2               AY55                 8.97                 0.01                 0.97                 1.17                 0.00                 0.00                
CY1208_CY1211        CY1208               CY1211               43.56                0.01                 1.63                 0.97                 0.00                 0.00                
AY191_AY192          AY191                AY192                33.12                0.01                 1.06                 0.86                 0.00                 0.00                
DY383_GY226          DY383                GY226                41.64                0.01                 1.14                 1.00                 0.00                 0.00                
CY118_CY119          CY118                CY119                0.91                 0.01                 0.99                 2.17                 0.00                 0.00                
CY62T2_AY142         CY62T2               AY142                20.06                0.01                 -0.55                0.33                 0.00                 0.00                
GY198_GY200          GY198                GY200                59.67                0.01                 1.37                 1.03                 0.00                 0.00                
AY204_AY205FP        AY204                AY205FP              33.04                0.01                 1.18                 1.07                 0.00                 0.00                
AY58_AY57            AY58                 AY57                 28.31                0.01                 1.10                 1.86                 0.00                 0.00                
AY93-3_AY93          AY93-3               AY93                 16.86                0.01                 0.23                 0.96                 0.00                 0.00                
CY145-18_CY145-22    CY145-18             CY145-22             21.24                0.01                 0.91                 -1.17                0.00                 0.00                
AY216_AY217          AY216                AY217                32.76                0.01                 1.08                 1.08                 0.00                 0.00                
AY68-1_AY68          AY68-1               AY68                 12.14                0.01                 0.84                 1.98                 0.00                 0.00                
AY61_AY60            AY61                 AY60                 32.67                0.01                 1.08                 1.79                 0.00                 0.00                
AY199_AY200          AY199                AY200                34.05                0.01                 1.08                 1.08                 0.00                 0.00                
BY171_BY172          BY171                BY172                35.89                0.01                 0.97                 0.97                 0.00                 0.00                
AY55-3_AY55-6        AY55-3               AY55-6               20.96                0.01                 1.07                 1.06                 0.00                 0.00                
AY203_AY204          AY203                AY204                32.62                0.01                 1.07                 1.08                 0.00                 0.00                
AY323_AY324          AY323                AY324                31.45                0.01                 1.45                 0.95                 0.00                 0.00                
AY200_AY201          AY200                AY201                33.04                0.01                 1.08                 1.07                 0.00                 0.00                
BY112-1_BY112        BY112-1              BY112                18.41                0.01                 1.51                 1.03                 0.00                 0.00                
AY55-6_AY55-11       AY55-6               AY55-11              12.67                0.01                 1.03                 1.03                 0.00                 0.00                
AY66_AY67            AY66                 AY67                 26.65                0.01                 1.07                 1.11                 0.00                 0.00                
AY193_AY194          AY193                AY194                32.98                0.01                 1.08                 0.98                 0.00                 0.00                
GY212_GY213          GY212                GY213                60.05                0.01                 1.21                 1.03                 0.00                 0.00                
BY27_BY28            BY27                 BY28                 32.93                0.01                 0.95                 0.95                 0.00                 0.00                
BY128_BY128X         BY128                BY128X               34.04                0.01                 1.51                 1.03                 0.00                 0.00                
DY503_DY504          DY503                DY504                5.65                 0.01                 0.93                 1.61                 0.00                 0.00                
CY93_CY96            CY93                 CY96                 38.96                0.01                 0.99                 1.44                 0.00                 0.00                
AY67-2_AY67          AY67-2               AY67                 12.60                0.01                 0.93                 1.91                 0.00                 0.00                
AYS11_AYS12          AYS11                AYS12                33.20                0.01                 1.00                 1.10                 0.00                 0.00                
BY110_BY109          BY110                BY109                25.16                0.01                 1.91                 1.00                 0.00                 0.00                
CY157_CY159          CY157                CY159                21.10                0.01                 0.92                 0.93                 0.00                 0.00                
AY42_AY17            AY42                 AY17                 26.19                0.01                 1.00                 3.10                 0.00                 0.00                
BY128X_BY126         BY128X               BY126                34.86                0.01                 1.03                 1.80                 0.00                 0.00                
CY69_CY74            CY69                 CY74                 31.51                0.01                 1.11                 1.01                 0.00                 0.00                
AY147_AY146          AY147                AY146                19.89                0.01                 0.88                 1.08                 0.00                 0.00                
AY209_AY210          AY209                AY210                34.19                0.01                 1.23                 0.98                 0.00                 0.00                
DY511_DY509          DY511                DY509                29.98                0.01                 0.86                 1.04                 0.00                 0.00                
DY517_DY515          DY517                DY515                29.96                0.01                 1.05                 1.02                 0.00                 0.00                
AY89_AY90            AY89                 AY90                 17.92                0.01                 1.92                 1.95                 0.00                 0.00                
AY136_AY135          AY136                AY135                21.81                0.01                 1.28                 1.18                 0.00                 0.00                
AY217_AY218          AY217                AY218                33.39                0.01                 0.98                 1.08                 0.00                 0.00                
AY57-5_AY57-4        AY57-5               AY57-4               12.10                0.01                 0.94                 1.01                 0.00                 0.00                
AY210_AY211          AY210                AY211                30.82                0.01                 0.98                 1.08                 0.00                 0.00                
BY23_BY24            BY23                 BY24                 33.09                0.01                 1.81                 1.81                 0.00                 0.00                
AY54-12_AY54-10      AY54-12              AY54-10              9.45                 0.01                 0.98                 1.18                 0.00                 0.00                
AY55-8_AY55-7        AY55-8               AY55-7               11.76                0.01                 1.08                 1.02                 0.00                 0.00                
AY212_AY213          AY212                AY213                33.25                0.01                 1.07                 0.77                 0.00                 0.00                
CY1213_CY1216        CY1213               CY1216               39.86                0.01                 0.97                 0.69                 0.00                 0.00                
CY117_CY118          CY117                CY118                8.26                 0.01                 0.99                 0.99                 0.00                 0.00                
GY249_GY251          GY249                GY251                17.84                0.01                 0.95                 0.95                 0.00                 0.00                
DY526_DY524          DY526                DY524                30.02                0.01                 0.95                 1.02                 0.00                 0.00                
CY68T1_CY66T1        CY68T1               CY66T1               29.70                0.01                 0.98                 1.04                 0.00                 0.00                
AY124_AY123          AY124                AY123                20.15                0.01                 0.85                 1.05                 0.00                 0.00                
AY66-1_AY66          AY66-1               AY66                 13.49                0.01                 0.98                 1.87                 0.00                 0.00                
BY1-2_BY1            BY1-2                BY1                  14.54                0.01                 2.23                 2.58                 0.00                 0.00                
AY99_AY100           AY99                 AY100                21.04                0.01                 1.27                 1.26                 0.00                 0.00                
CY71T1_CY70T1        CY71T1               CY70T1               15.13                0.01                 0.97                 0.97                 0.00                 0.00                
BY188_BY189          BY188                BY189                29.19                0.01                 1.38                 1.38                 0.00                 0.00                
CY153_CY156          CY153                CY156                11.13                0.01                 1.22                 1.61                 0.00                 0.00                
BY175-2_BY175        BY175-2              BY175                13.91                0.01                 0.97                 2.12                 0.00                 0.00                
GY227_GY230          GY227                GY230                30.07                0.01                 1.06                 1.06                 0.00                 0.00                
AY50_AY51            AY50                 AY51                 36.39                0.01                 1.87                 1.68                 0.00                 0.00                
AY122_AY121          AY122                AY121                20.49                0.01                 1.05                 1.05                 0.00                 0.00                
AY109_AY108          AY109                AY108                40.09                0.01                 1.08                 1.17                 0.00                 0.00                
DY409_DY406          DY409                DY406                24.90                0.01                 0.83                 0.99                 0.00                 0.00                
AY60_BY123           AY60                 BY123                36.62                0.01                 1.41                 1.01                 0.00                 0.00                
AY116_AY115          AY116                AY115                20.50                0.01                 0.95                 1.05                 0.00                 0.00                
CY78_CYCSK22         CY78                 CYCSK22              10.10                0.01                 0.97                 -0.04                0.00                 0.00                
AY121_AY120          AY121                AY120                20.34                0.01                 1.05                 1.05                 0.00                 0.00                
AY101_AY100          AY101                AY100                9.77                 0.01                 1.05                 1.06                 0.00                 0.00                
CY130_CY130-1        CY130                CY130-1              13.04                0.01                 1.47                 1.48                 0.00                 0.00                
AY320_AY321          AY320                AY321                29.01                0.01                 1.39                 1.43                 0.00                 0.00                
AYS5_AYS6            AYS5                 AYS6                 27.14                0.01                 1.02                 1.03                 0.00                 0.00                
BY120_BY119          BY120                BY119                41.92                0.01                 1.01                 1.01                 0.00                 0.00                
AY83_AY85            AY83                 AY85                 20.96                0.01                 2.01                 1.88                 0.00                 0.00                
DY394_DY393          DY394                DY393                31.84                0.01                 2.22                 0.96                 0.00                 0.00                
CY113_CY112          CY113                CY112                8.21                 0.01                 0.99                 1.00                 0.00                 0.00                
BY10_BY11            BY10                 BY11                 35.73                0.01                 1.75                 2.00                 0.00                 0.00                
CY132_CY131          CY132                CY131                22.97                0.01                 1.60                 1.61                 0.00                 0.00                
GY228_GY227          GY228                GY227                33.45                0.01                 1.97                 1.05                 0.00                 0.00                
AY55-9_AY55-10       AY55-9               AY55-10              17.33                0.01                 1.13                 1.03                 0.00                 0.00                
BY187_BY188          BY187                BY188                30.54                0.01                 1.65                 1.35                 0.00                 0.00                
AY105_AY104          AY105                AY104                20.23                0.01                 1.18                 1.07                 0.00                 0.00                
BY189_BY190          BY189                BY190                29.65                0.01                 1.39                 1.38                 0.00                 0.00                
AY195_AY196          AY195                AY196                66.00                0.01                 1.08                 1.08                 0.00                 0.00                
AY16-1_AY16-2        AY16-1               AY16-2               9.84                 0.01                 1.05                 -0.09                0.00                 0.00                
AY144_AY143          AY144                AY143                39.42                0.01                 0.92                 0.82                 0.00                 0.00                
CY100_CY99           CY100                CY99                 1.19                 0.01                 0.99                 1.31                 0.00                 0.00                
AY55_AY55-3          AY55                 AY55-3               21.02                0.01                 0.99                 0.98                 0.00                 0.00                
AY111_AY110          AY111                AY110                19.36                0.01                 1.03                 1.07                 0.00                 0.00                
GY196_GY198          GY196                GY198                30.12                0.01                 1.26                 1.35                 0.00                 0.00                
DY396_DY394          DY396                DY394                31.76                0.01                 0.96                 1.02                 0.00                 0.00                
GY240_GY242          GY240                GY242                30.09                0.01                 1.16                 1.00                 0.00                 0.00                
AY36_AY35            AY36                 AY35                 25.75                0.01                 0.92                 1.42                 0.00                 0.00                
CY62T1_CY62T2        CY62T1               CY62T2               21.55                0.01                 1.01                 -0.29                0.00                 0.00                
BY118_AY51           BY118                AY51                 30.84                0.01                 1.43                 0.91                 0.00                 0.00                
BY3_BY4              BY3                  BY4                  33.18                0.01                 1.81                 1.66                 0.00                 0.00                
AY69-2_AY69          AY69-2               AY69                 10.21                0.01                 0.78                 1.95                 0.00                 0.00                
DY406_DY405          DY406                DY405                29.45                0.01                 0.99                 0.89                 0.00                 0.00                
CY145-3_CY145-6      CY145-3              CY145-6              25.09                0.01                 0.98                 0.98                 0.00                 0.00                
CY161_CY163          CY161                CY163                8.93                 0.01                 0.92                 0.95                 0.00                 0.00                
AY150_AY149          AY150                AY149                30.46                0.01                 1.08                 1.07                 0.00                 0.00                
AY52_AY53            AY52                 AY53                 32.85                0.01                 1.10                 0.99                 0.00                 0.00                
AY17_AY16            AY17                 AY16                 15.31                0.01                 2.03                 0.92                 0.00                 0.00                
AY322_BY175          AY322                BY175                35.29                0.01                 2.43                 1.32                 0.00                 0.00                
CY69T1_CY68T1        CY69T1               CY68T1               29.60                0.01                 1.11                 0.98                 0.00                 0.00                
CY151_CY153          CY151                CY153                29.59                0.01                 0.98                 1.22                 0.00                 0.00                
AY62_AY61            AY62                 AY61                 35.30                0.01                 1.14                 1.11                 0.00                 0.00                
AY25_AY24            AY25                 AY24                 35.18                0.01                 1.07                 0.98                 0.00                 0.00                
BY19_BY20            BY19                 BY20                 34.41                0.01                 1.92                 1.82                 0.00                 0.00                
CY119_CY120          CY119                CY120                41.10                0.01                 1.03                 0.91                 0.00                 0.00                
AY47_AY330           AY47                 AY330                26.35                0.01                 1.14                 0.98                 0.00                 0.00                
BY112_BY112X         BY112                BY112X               19.95                0.01                 1.23                 1.91                 0.00                 0.00                
BY130_BY129          BY130                BY129                35.53                0.01                 1.00                 1.10                 0.00                 0.00                
AY319_AY320          AY319                AY320                29.45                0.01                 1.16                 1.29                 0.00                 0.00                
BY169_AYS8           BY169                AYS8                 26.94                0.01                 0.93                 1.14                 0.00                 0.00                
BY176-3_BY176        BY176-3              BY176                16.23                0.01                 0.97                 1.06                 0.00                 0.00                
AYS7_AYS8            AYS7                 AYS8                 37.56                0.01                 0.94                 0.92                 0.00                 0.00                
AY98_AY97            AY98                 AY97                 20.16                0.01                 1.07                 1.03                 0.00                 0.00                
AY125_AY124          AY125                AY124                20.02                0.01                 1.02                 1.03                 0.00                 0.00                
BY178A_BY108         BY178A               BY108                35.12                0.01                 0.97                 0.97                 0.00                 0.00                
AY32_AY31            AY32                 AY31                 26.91                0.01                 0.98                 0.93                 0.00                 0.00                
CY124_CY125          CY124                CY125                1.11                 0.01                 2.08                 1.87                 0.00                 0.00                
CY145-9_CY145-10     CY145-9              CY145-10             23.47                0.01                 1.00                 0.97                 0.00                 0.00                
BY119_BY118          BY119                BY118                37.25                0.01                 1.01                 1.02                 0.00                 0.00                
CY66T1_CY64T1        CY66T1               CY64T1               29.66                0.01                 0.98                 1.00                 0.00                 0.00                
DY400_DY398          DY400                DY398                31.81                0.01                 1.00                 0.94                 0.00                 0.00                
CY145-1_CY145-3      CY145-1              CY145-3              31.75                0.01                 0.98                 0.98                 0.00                 0.00                
DY522_DY520          DY522                DY520                29.93                0.01                 1.03                 0.98                 0.00                 0.00                
AY35_AY34            AY35                 AY34                 35.03                0.01                 1.42                 1.09                 0.00                 0.00                
AY192_AY193          AY192                AY193                33.00                0.01                 0.98                 1.08                 0.00                 0.00                
AY211_AY212          AY211                AY212                32.85                0.01                 1.18                 0.97                 0.00                 0.00                
AY45_AY46            AY45                 AY46                 28.30                0.01                 1.78                 1.09                 0.00                 0.00                
AY66_AY29            AY66                 AY29                 26.19                0.01                 1.07                 1.45                 0.00                 0.00                
AY54-14_AY54-13      AY54-14              AY54-13              5.11                 0.01                 1.01                 1.42                 0.00                 0.00                
CY70T1_CY69T1        CY70T1               CY69T1               29.61                0.01                 1.01                 0.98                 0.00                 0.00                
AY70_BY130           AY70                 BY130                36.85                0.01                 1.21                 1.00                 0.00                 0.00                
CY114_CY119          CY114                CY119                40.74                0.01                 1.08                 1.03                 0.00                 0.00                
AY95_AY94            AY95                 AY94                 20.03                0.01                 1.15                 0.98                 0.00                 0.00                
CY103_CY102          CY103                CY102                0.90                 0.01                 1.02                 2.16                 0.00                 0.00                
AY328_AY329          AY328                AY329                15.52                0.01                 0.97                 0.95                 0.00                 0.00                
BY5_BY6              BY5                  BY6                  32.80                0.01                 1.83                 1.78                 0.00                 0.00                
BY182-2_BY182        BY182-2              BY182                12.17                0.01                 0.97                 1.96                 0.00                 0.00                
AY152_AY150          AY152                AY150                40.37                0.01                 1.07                 1.08                 0.00                 0.00                
BY18_BY19            BY18                 BY19                 31.79                0.01                 1.81                 1.82                 0.00                 0.00                
AY29_AY28            AY29                 AY28                 37.37                0.01                 1.05                 1.03                 0.00                 0.00                
AY123_AY122          AY123                AY122                20.22                0.01                 1.15                 1.05                 0.00                 0.00                
CY131_CY130          CY131                CY130                38.76                0.01                 1.58                 1.35                 0.00                 0.00                
CY94_CY93            CY94                 CY93                 1.33                 0.01                 1.01                 1.23                 0.00                 0.00                
AYS9_AYS10           AYS9                 AYS10                31.43                0.01                 1.02                 0.98                 0.00                 0.00                
BY122_BY121          BY122                BY121                37.79                0.01                 1.01                 1.01                 0.00                 0.00                
BY123_BY122          BY123                BY122                34.75                0.01                 0.71                 1.01                 0.00                 0.00                
CY77_CY76            CY77                 CY76                 8.16                 0.01                 1.16                 1.13                 0.00                 0.00                
AY70_AY71            AY70                 AY71                 27.89                0.01                 1.33                 1.08                 0.00                 0.00                
BY13_BY14            BY13                 BY14                 65.74                0.01                 2.62                 2.03                 0.00                 0.00                
BY25_BY25-2          BY25                 BY25-2               6.95                 0.01                 1.82                 1.91                 0.00                 0.00                
AY24-2_AY24          AY24-2               AY24                 12.28                0.01                 0.99                 2.24                 0.00                 0.00                
BY116_BY114          BY116                BY114                27.45                0.01                 0.70                 1.01                 0.00                 0.00                
AY325-1_AY326        AY325-1              AY326                31.13                0.01                 1.39                 1.27                 0.00                 0.00                
AY92_AY91            AY92                 AY91                 17.20                0.01                 1.09                 1.07                 0.00                 0.00                
CY122_CY121          CY122                CY121                8.30                 0.01                 0.99                 0.99                 0.00                 0.00                
BY28_BY29            BY28                 BY29                 33.13                0.01                 0.95                 0.95                 0.00                 0.00                
AY213_AY213CSK       AY213                AY213CSK             41.12                0.01                 1.07                 1.23                 0.00                 0.00                
DY529_DY526          DY529                DY526                29.95                0.01                 0.54                 0.96                 0.00                 0.00                
DY390_DY388          DY390                DY388                60.34                0.01                 1.06                 0.97                 0.00                 0.00                
GY242_GY243          GY242                GY243                29.97                0.01                 0.95                 1.36                 0.00                 0.00                
AY317_AY318          AY317                AY318                29.07                0.01                 1.23                 1.37                 0.00                 0.00                
GY213_GY218          GY213                GY218                29.93                0.01                 1.03                 0.95                 0.00                 0.00                
BY108_BY179          BY108                BY179                30.88                0.01                 0.97                 1.04                 0.00                 0.00                
BY111_BY110          BY111                BY110                30.17                0.01                 1.61                 1.81                 0.00                 0.00                
CY83_CY82            CY83                 CY82                 8.29                 0.01                 0.99                 1.12                 0.00                 0.00                
AY79_AY80            AY79                 AY80                 19.09                0.01                 0.93                 0.93                 0.00                 0.00                
AYS4_AYS5            AYS4                 AYS5                 33.05                0.01                 0.98                 1.11                 0.00                 0.00                
AY119_AY118          AY119                AY118                20.41                0.01                 1.05                 1.07                 0.00                 0.00                
CY145-19_CY145-20    CY145-19             CY145-20             9.04                 0.01                 1.20                 1.12                 0.00                 0.00                
AY65-1_AY65          AY65-1               AY65                 11.46                0.01                 0.98                 1.90                 0.00                 0.00                
BY177-4_BY177        BY177-4              BY177                12.31                0.01                 0.96                 1.49                 0.00                 0.00                
AY49_AY50            AY49                 AY50                 34.32                0.01                 0.97                 0.91                 0.00                 0.00                
CY115_CY114          CY115                CY114                1.14                 0.01                 0.99                 3.00                 0.00                 0.00                
DY507_DY505          DY507                DY505                30.02                0.01                 0.96                 0.95                 0.00                 0.00                
CY95_CY94            CY95                 CY94                 8.20                 0.01                 0.99                 1.01                 0.00                 0.00                
AYS14_AYS15-1        AYS14                AYS15-1              15.73                0.01                 1.07                 0.99                 0.00                 0.00                
GY207_GY210          GY207                GY210                30.03                0.01                 1.48                 1.23                 0.00                 0.00                
AY70_CY1199          AY70                 CY1199               22.71                0.01                 1.23                 1.08                 0.00                 0.00                
CY85_CY84            CY85                 CY84                 1.38                 0.01                 1.14                 1.41                 0.00                 0.00                
AY146_AY145          AY146                AY145                19.89                0.01                 1.08                 1.07                 0.00                 0.00                
AY33_AY32            AY33                 AY32                 32.83                0.01                 0.92                 0.98                 0.00                 0.00                
BY121_BY120          BY121                BY120                40.25                0.01                 1.01                 1.01                 0.00                 0.00                
CY142_CY139          CY142                CY139                27.28                0.01                 1.35                 1.41                 0.00                 0.00                
AY27_AY26            AY27                 AY26                 35.33                0.01                 0.98                 0.96                 0.00                 0.00                
BY179-2_BY179        BY179-2              BY179                12.90                0.01                 0.96                 1.50                 0.00                 0.00                
CY149_CY147          CY149                CY147                21.02                0.01                 1.07                 0.92                 0.00                 0.00                
AY43_AY44            AY43                 AY44                 25.42                0.01                 1.18                 1.37                 0.00                 0.00                
BY181-4_BY181-5      BY181-4              BY181-5              21.50                0.01                 0.97                 0.97                 0.00                 0.00                
AY113_AY112          AY113                AY112                19.40                0.01                 1.00                 0.95                 0.00                 0.00                
AY86-10_AY86-7       AY86-10              AY86-7               37.14                0.01                 0.98                 0.97                 0.00                 0.00                
AY55-1_AY55          AY55-1               AY55                 6.21                 0.01                 0.97                 1.17                 0.00                 0.00                
CY72_CY74            CY72                 CY74                 1.59                 0.01                 1.19                 2.49                 0.00                 0.00                
AY118_AY117          AY118                AY117                20.12                0.01                 1.22                 1.15                 0.00                 0.00                
AY327_AY328          AY327                AY328                29.45                0.01                 0.99                 1.19                 0.00                 0.00                
AY104_AY103          AY104                AY103                19.34                0.01                 0.97                 1.07                 0.00                 0.00                
CY96_CY99            CY96                 CY99                 39.96                0.01                 1.34                 0.98                 0.00                 0.00                
AY129_AY128          AY129                AY128                20.46                0.01                 1.08                 1.22                 0.00                 0.00                
AY53_AY54            AY53                 AY54                 14.44                0.01                 0.97                 1.06                 0.00                 0.00                
AYS2_AYS3            AYS2                 AYS3                 26.94                0.01                 0.56                 1.05                 0.00                 0.00                
AY54-10_AY54-13      AY54-10              AY54-13              28.57                0.01                 0.97                 0.97                 0.00                 0.00                
DY391_DY390          DY391                DY390                1.63                 0.01                 1.00                 2.47                 0.00                 0.00                
AY143_AY142          AY143                AY142                54.67                0.01                 0.72                 0.63                 0.00                 0.00                
BY170_BY171          BY170                BY171                38.95                0.01                 0.97                 0.97                 0.00                 0.00                
CY76T1_CY74T1        CY76T1               CY74T1               23.99                0.01                 0.97                 1.03                 0.00                 0.00                
DY414_DY413          DY414                DY413                30.18                0.01                 0.97                 0.99                 0.00                 0.00                
AY60_AY59            AY60                 AY59                 27.98                0.01                 1.97                 1.28                 0.00                 0.00                
AY102_AY101          AY102                AY101                19.46                0.01                 1.04                 1.05                 0.00                 0.00                
DY441_DY445          DY441                DY445                60.23                0.01                 0.36                 2.07                 0.00                 0.00                
BY8_BY9              BY8                  BY9                  33.03                0.01                 1.82                 1.89                 0.00                 0.00                
DY394_DY411          DY394                DY411                20.13                0.01                 0.97                 1.88                 0.00                 0.00                
FP9-1_AY76           FP9-1                AY76                 5.97                 0.01                 1.68                 3.12                 0.00                 0.00                
AY16_AY16-1          AY16                 AY16-1               13.30                0.01                 0.91                 0.92                 0.00                 0.00                
GY260_GY263          GY260                GY263                18.79                0.01                 0.95                 1.00                 0.00                 0.00                
BY190_BY191          BY190                BY191                17.77                0.01                 1.39                 1.38                 0.00                 0.00                
AY87A_AY88           AY87A                AY88                 11.61                0.01                 1.85                 1.92                 0.00                 0.00                
AY54-13_AY54-16      AY54-13              AY54-16              8.79                 0.01                 0.98                 0.98                 0.00                 0.00                
AY120_AY119          AY120                AY119                19.81                0.01                 1.05                 1.05                 0.00                 0.00                
AY81_BY191           AY81                 BY191                13.36                0.01                 1.03                 1.38                 0.00                 0.00                
BY191_AY82           BY191                AY82                 37.62                0.01                 1.38                 1.04                 0.00                 0.00                
AY92_AY93-3          AY92                 AY93-3               11.12                0.01                 1.09                 0.23                 0.00                 0.00                
CY130-1_CY145-22     CY130-1              CY145-22             25.41                0.01                 2.19                 -1.17                0.00                 0.00                
AY214_myoutfall2     AY214                myoutfall2           35.75                0.01                 1.07                 -1.00                0.00                 0.00                
CY145-22_myoutfall1  CY145-22             myoutfall1           39.67                0.01                 -1.17                -2.00                0.00                 0.00                

[XSECTIONS]
;Name                  Shape           Geom1          Geom2              Geom3           Geom4         Barrels
;------------------- ------------------- ------------------- ------------------- ------------------- ------------------- -------------------
AY42_AY43            CIRCULAR             0.40                 0.00                 0.00                 0.00                                    1
AY205FP_AY206        CIRCULAR             0.30                 0.00                 0.00                 0.00                                    1
CY82_CY81            CIRCULAR             0.20                 0.00                 0.00                 0.00                                    1
CY99_CY102           CIRCULAR             0.60                 0.00                 0.00                 0.00                                    1
BY129_BY128          CIRCULAR             0.80                 0.00                 0.00                 0.00                                    1
AY65_AY64            CIRCULAR             0.40                 0.00                 0.00                 0.00                                    1
BY181-3_BY181-4      CIRCULAR             0.40                 0.00                 0.00                 0.00                                    1
AY97_AY97-2          CIRCULAR             0.40                 0.00                 0.00                 0.00                                    1
AY55-7_AY55-6        CIRCULAR             0.30                 0.00                 0.00                 0.00                                    1
BY178A-3_BY178A      CIRCULAR             0.40                 0.00                 0.00                 0.00                                    1
CY81_CY84            CIRCULAR             0.60                 0.00                 0.00                 0.00                                    1
DY412_DY411          CIRCULAR             0.80                 0.00                 0.00                 0.00                                    1
AYS3_AYS4            CIRCULAR             0.60                 0.00                 0.00                 0.00                                    1
AYS13_AYS14          CIRCULAR             0.60                 0.00                 0.00                 0.00                                    1
AY55-11_AY55-12      CIRCULAR             0.40                 0.00                 0.00                 0.00                                    1
AY110_AY109          CIRCULAR             0.40                 0.00                 0.00                 0.00                                    1
AY191-1_AY191        CIRCULAR             0.30                 0.00                 0.00                 0.00                                    1
CY101_CY100          CIRCULAR             0.20                 0.00                 0.00                 0.00                                    1
GY243_GY245          CIRCULAR             0.60                 0.00                 0.00                 0.00                                    1
CY106_CYCSK23        CIRCULAR             0.60                 0.00                 0.00                 0.00                                    1
BY21_BY22            CIRCULAR             0.80                 0.00                 0.00                 0.00                                    1
AY133_AY132          CIRCULAR             0.60                 0.00                 0.00                 0.00                                    1
AY19_AY18            CIRCULAR             0.60                 0.00                 0.00                 0.00                                    1
AY68_AY69            CIRCULAR             0.40                 0.00                 0.00                 0.00                                    1
BY106_BY105          CIRCULAR             0.80                 0.00                 0.00                 0.00                                    1
AY37_AY36            CIRCULAR             0.60                 0.00                 0.00                 0.00                                    1
BY7_BY8              CIRCULAR             0.80                 0.00                 0.00                 0.00                                    1
AY51_BY116           CIRCULAR             0.80                 0.00                 0.00                 0.00                                    1
CY163_CY164          CIRCULAR             0.60                 0.00                 0.00                 0.00                                    1
CY88_CY87            CIRCULAR             0.20                 0.00                 0.00                 0.00                                    1
BY11_BY12            CIRCULAR             0.80                 0.00                 0.00                 0.00                                    1
CY1206_CY1208        CIRCULAR             0.60                 0.00                 0.00                 0.00                                    1
CY1211_CY1213        CIRCULAR             0.40                 0.00                 0.00                 0.00                                    1
AY22_AY21            CIRCULAR             0.60                 0.00                 0.00                 0.00                                    1
CY145-15_CY145-17    CIRCULAR             0.30                 0.00                 0.00                 0.00                                    1
BY114_BY113          CIRCULAR             0.80                 0.00                 0.00                 0.00                                    1
CY164_CY165          CIRCULAR             0.60                 0.00                 0.00                 0.00                                    1
CY70_CY69            CIRCULAR             0.20                 0.00                 0.00                 0.00                                    1
AY59_AY58            CIRCULAR             0.40                 0.00                 0.00                 0.00                                    1
GY245_GY247          CIRCULAR             0.60                 0.00                 0.00                 0.00                                    1
AY215_AY216          CIRCULAR             0.30                 0.00                 0.00                 0.00                                    1
CY145-7_CY145-9      CIRCULAR             0.30                 0.00                 0.00                 0.00                                    1
AY76_AY75            CIRCULAR             0.30                 0.00                 0.00                 0.00                                    1
BY26-2_BY26          CIRCULAR             0.80                 0.00                 0.00                 0.00                                    1
GY210_GY212          CIRCULAR             0.60                 0.00                 0.00                 0.00                                    1
AY21_AY20            CIRCULAR             0.60                 0.00                 0.00                 0.00                                    1
CY78_CY81            CIRCULAR             0.60                 0.00                 0.00                 0.00                                    1
GY232_GY234          CIRCULAR             0.60                 0.00                 0.00                 0.00                                    1
AY74--2_AY74A        CIRCULAR             0.30                 0.00                 0.00                 0.00                                    1
CY80_CY79            CIRCULAR             0.20                 0.00                 0.00                 0.00                                    1
GY255_GY258          CIRCULAR             0.60                 0.00                 0.00                 0.00                                    1
AY208_AY209          CIRCULAR             0.30                 0.00                 0.00                 0.00                                    1
GY247_GY249          CIRCULAR             0.60                 0.00                 0.00                 0.00                                    1
BY109_BY108          CIRCULAR             0.80                 0.00                 0.00                 0.00                                    1
AY206_AY207          CIRCULAR             0.30                 0.00                 0.00                 0.00                                    1
DY513_DY511          CIRCULAR             0.60                 0.00                 0.00                 0.00                                    1
CY92_CY91            CIRCULAR             0.20                 0.00                 0.00                 0.00                                    1
DY426_DY431          CIRCULAR             0.60                 0.00                 0.00                 0.00                                    1
CY1199_CY1202        CIRCULAR             0.60                 0.00                 0.00                 0.00                                    1
AYS6_AYS7            CIRCULAR             0.60                 0.00                 0.00                 0.00                                    1
CY74_CY75            CIRCULAR             0.60                 0.00                 0.00                 0.00                                    1
AY63-2_AY63          CIRCULAR             0.20                 0.00                 0.00                 0.00                                    1
BY15_BY16            CIRCULAR             0.80                 0.00                 0.00                 0.00                                    1
AY318_AY319          CIRCULAR             0.60                 0.00                 0.00                 0.00                                    1
AY159_AY158          CIRCULAR             0.40                 0.00                 0.00                 0.00                                    1
BY12_BY13            CIRCULAR             0.80                 0.00                 0.00                 0.00                                    1
AY66-2_AY66          CIRCULAR             0.30                 0.00                 0.00                 0.00                                    1
AY30_AY29            CIRCULAR             0.60                 0.00                 0.00                 0.00                                    1
CY159_CY161          CIRCULAR             0.60                 0.00                 0.00                 0.00                                    1
BY29_BY30            CIRCULAR             0.80                 0.00                 0.00                 0.00                                    1
DY533_DY531          CIRCULAR             0.60                 0.00                 0.00                 0.00                                    1
DY433_DY435          CIRCULAR             0.60                 0.00                 0.00                 0.00                                    1
AY93_AY93-2          CIRCULAR             0.40                 0.00                 0.00                 0.00                                    1
AY324_AY325-1        CIRCULAR             1.00                 0.00                 0.00                 0.00                                    1
AY26_AY25            CIRCULAR             0.60                 0.00                 0.00                 0.00                                    1
CY64T1_CY62T1        CIRCULAR             0.40                 0.00                 0.00                 0.00                                    1
GY236_GY238          CIRCULAR             0.60                 0.00                 0.00                 0.00                                    1
AY94_AY93            CIRCULAR             0.40                 0.00                 0.00                 0.00                                    1
CY133_CY132          CIRCULAR             0.40                 0.00                 0.00                 0.00                                    1
AY127_AY126          CIRCULAR             0.60                 0.00                 0.00                 0.00                                    1
DY531_DY529          CIRCULAR             0.60                 0.00                 0.00                 0.00                                    1
GY238_GY240          CIRCULAR             0.60                 0.00                 0.00                 0.00                                    1
AY326_AY327          CIRCULAR             1.00                 0.00                 0.00                 0.00                                    1
AY54-11_AY54-10      CIRCULAR             0.30                 0.00                 0.00                 0.00                                    1
BY4_BY5              CIRCULAR             0.80                 0.00                 0.00                 0.00                                    1
AYS1_AYS2            CIRCULAR             0.60                 0.00                 0.00                 0.00                                    1
CY79_CY78            CIRCULAR             0.20                 0.00                 0.00                 0.00                                    1
BY177_BY178          CIRCULAR             0.40                 0.00                 0.00                 0.00                                    1
CY72T1_CY71T1        CIRCULAR             0.40                 0.00                 0.00                 0.00                                    1
CY145-6_CY145-7      CIRCULAR             0.30                 0.00                 0.00                 0.00                                    1
GY223_DY415          CIRCULAR             0.60                 0.00                 0.00                 0.00                                    1
CY121_CY120          CIRCULAR             0.20                 0.00                 0.00                 0.00                                    1
AY97_AY96            CIRCULAR             0.40                 0.00                 0.00                 0.00                                    1
CY75_CY78            CIRCULAR             0.60                 0.00                 0.00                 0.00                                    1
CY156_CY157          CIRCULAR             0.60                 0.00                 0.00                 0.00                                    1
AY322_AY323          CIRCULAR             1.00                 0.00                 0.00                 0.00                                    1
BY17_BY18            CIRCULAR             0.80                 0.00                 0.00                 0.00                                    1
AY158_AY157          CIRCULAR             0.40                 0.00                 0.00                 0.00                                    1
CY76_CY75            CIRCULAR             0.20                 0.00                 0.00                 0.00                                    1
AY201-1_AY201        CIRCULAR             0.30                 0.00                 0.00                 0.00                                    1
DY411_DY409          CIRCULAR             0.80                 0.00                 0.00                 0.00                                    1
GY234_GY236          CIRCULAR             0.60                 0.00                 0.00                 0.00                                    1
AY54-3_AY54-2        CIRCULAR             0.30                 0.00                 0.00                 0.00                                    1
AY38_AY37            CIRCULAR             0.60                 0.00                 0.00                 0.00                                    1
AY55-5_AY55-3        CIRCULAR             0.30                 0.00                 0.00                 0.00                                    1
AY130_AY129          CIRCULAR             0.60                 0.00                 0.00                 0.00                                    1
AY31_AY30            CIRCULAR             0.60                 0.00                 0.00                 0.00                                    1
AY69_AY70            CIRCULAR             0.40                 0.00                 0.00                 0.00                                    1
DY421_DY423          CIRCULAR             0.60                 0.00                 0.00                 0.00                                    1
CY145-7_CY145-8      CIRCULAR             0.30                 0.00                 0.00                 0.00                                    1
AY196_AY197          CIRCULAR             0.30                 0.00                 0.00                 0.00                                    1
CY73_CY72            CIRCULAR             0.20                 0.00                 0.00                 0.00                                    1
CY91_CY90            CIRCULAR             0.20                 0.00                 0.00                 0.00                                    1
CY139_CY137          CIRCULAR             0.40                 0.00                 0.00                 0.00                                    1
AY194_AY195          CIRCULAR             0.30                 0.00                 0.00                 0.00                                    1
AY132_CY145-18       CIRCULAR             0.80                 0.00                 0.00                 0.00                                    1
AY202X_AY203         CIRCULAR             0.30                 0.00                 0.00                 0.00                                    1
DY415_DY414          CIRCULAR             0.60                 0.00                 0.00                 0.00                                    1
DY402_DY418          CIRCULAR             0.60                 0.00                 0.00                 0.00                                    1
AY24_AY23            CIRCULAR             0.60                 0.00                 0.00                 0.00                                    1
AY23_AY22            CIRCULAR             0.60                 0.00                 0.00                 0.00                                    1
BY176_BY177          CIRCULAR             0.40                 0.00                 0.00                 0.00                                    1
CY120_CY125          CIRCULAR             0.60                 0.00                 0.00                 0.00                                    1
AY57-1_AY57          CIRCULAR             0.20                 0.00                 0.00                 0.00                                    1
BY180-2_BY180        CIRCULAR             0.40                 0.00                 0.00                 0.00                                    1
DY524_DY522          CIRCULAR             0.60                 0.00                 0.00                 0.00                                    1
AY57-4_AY57          CIRCULAR             0.20                 0.00                 0.00                 0.00                                    1
BY6_BY7              CIRCULAR             0.80                 0.00                 0.00                 0.00                                    1
AY65_AY23            CIRCULAR             0.40                 0.00                 0.00                 0.00                                    1
BY178_BY178A         CIRCULAR             0.40                 0.00                 0.00                 0.00                                    1
AY86-3_AY86-2        CIRCULAR             0.50                 0.00                 0.00                 0.00                                    1
DY515_DY513          CIRCULAR             0.60                 0.00                 0.00                 0.00                                    1
BY112X_BY111         CIRCULAR             0.80                 0.00                 0.00                 0.00                                    1
AY112_AY111          CIRCULAR             0.50                 0.00                 0.00                 0.00                                    1
CY1202_CY1206        CIRCULAR             0.60                 0.00                 0.00                 0.00                                    1
AY55-10_AY55-6       CIRCULAR             0.30                 0.00                 0.00                 0.00                                    1
GY218_GY223          CIRCULAR             0.60                 0.00                 0.00                 0.00                                    1
GY230_GY232          CIRCULAR             0.60                 0.00                 0.00                 0.00                                    1
AY214_AY215          CIRCULAR             0.30                 0.00                 0.00                 0.00                                    1
CY90_CY93            CIRCULAR             0.60                 0.00                 0.00                 0.00                                    1
DY393_DY392          CIRCULAR             0.30                 0.00                 0.00                 0.00                                    1
CY106_CY108          CIRCULAR             0.60                 0.00                 0.00                 0.00                                    1
AY88_AY89            CIRCULAR             0.50                 0.00                 0.00                 0.00                                    1
BY174_AY322          CIRCULAR             0.40                 0.00                 0.00                 0.00                                    1
CY165_CY149          CIRCULAR             0.60                 0.00                 0.00                 0.00                                    1
BY126_BY125          CIRCULAR             0.80                 0.00                 0.00                 0.00                                    1
CY147_AY142          CIRCULAR             0.60                 0.00                 0.00                 0.00                                    1
AY96_AY95            CIRCULAR             0.40                 0.00                 0.00                 0.00                                    1
AY18_AY17            CIRCULAR             0.60                 0.00                 0.00                 0.00                                    1
BY9_BY10             CIRCULAR             0.80                 0.00                 0.00                 0.00                                    1
BY125_AY60           CIRCULAR             0.80                 0.00                 0.00                 0.00                                    1
GY202_GY205          CIRCULAR             0.60                 0.00                 0.00                 0.00                                    1
AY54-2_AY54          CIRCULAR             0.30                 0.00                 0.00                 0.00                                    1
BY26_BY27            CIRCULAR             0.80                 0.00                 0.00                 0.00                                    1
GY200_GY202          CIRCULAR             0.60                 0.00                 0.00                 0.00                                    1
CY110_CY109          CIRCULAR             0.20                 0.00                 0.00                 0.00                                    1
AY218_AY219          CIRCULAR             0.30                 0.00                 0.00                 0.00                                    1
AY138_AY137          CIRCULAR             0.60                 0.00                 0.00                 0.00                                    1
AY149_AY148          CIRCULAR             0.40                 0.00                 0.00                 0.00                                    1
DY509_DY507          CIRCULAR             0.60                 0.00                 0.00                 0.00                                    1
BY16_BY17            CIRCULAR             0.80                 0.00                 0.00                 0.00                                    1
BY181-2_BY181        CIRCULAR             0.40                 0.00                 0.00                 0.00                                    1
AY63_AY62            CIRCULAR             0.40                 0.00                 0.00                 0.00                                    1
BY181-3_BY181        CIRCULAR             0.40                 0.00                 0.00                 0.00                                    1
CY157_CY157-1        CIRCULAR             0.60                 0.00                 0.00                 0.00                                    1
DY405_DY402          CIRCULAR             0.60                 0.00                 0.00                 0.00                                    1
AY64-2_AY64          CIRCULAR             0.20                 0.00                 0.00                 0.00                                    1
AY86-7_AY86-3        CIRCULAR             0.40                 0.00                 0.00                 0.00                                    1
AY128_AY127          CIRCULAR             0.60                 0.00                 0.00                 0.00                                    1
AY103_AY102          CIRCULAR             0.40                 0.00                 0.00                 0.00                                    1
DY535_DY533          CIRCULAR             0.60                 0.00                 0.00                 0.00                                    1
CY116_CY115          CIRCULAR             0.20                 0.00                 0.00                 0.00                                    1
AY190-1_AY190        CIRCULAR             0.30                 0.00                 0.00                 0.00                                    1
AY157_AY156          CIRCULAR             0.40                 0.00                 0.00                 0.00                                    1
CY108_CY111          CIRCULAR             0.60                 0.00                 0.00                 0.00                                    1
CY89_CY88            CIRCULAR             0.20                 0.00                 0.00                 0.00                                    1
AY321_AY322          CIRCULAR             1.00                 0.00                 0.00                 0.00                                    1
BY172_BY173          CIRCULAR             0.40                 0.00                 0.00                 0.00                                    1
AY46_AY47            CIRCULAR             0.40                 0.00                 0.00                 0.00                                    1
BY178-3_BY178        CIRCULAR             0.40                 0.00                 0.00                 0.00                                    1
DY388_DY386          CIRCULAR             0.60                 0.00                 0.00                 0.00                                    1
AY77_AY78            CIRCULAR             0.40                 0.00                 0.00                 0.00                                    1
FP10-1_AY76          CIRCULAR             0.40                 0.00                 0.00                 0.00                                    1
AY329_CSK4           CIRCULAR             1.00                 0.00                 0.00                 0.00                                    1
AY107_AY106          CIRCULAR             0.40                 0.00                 0.00                 0.00                                    1
AY98_AY99            CIRCULAR             0.40                 0.00                 0.00                 0.00                                    1
DY505_DY502          CIRCULAR             0.60                 0.00                 0.00                 0.00                                    1
AY153_AY152          CIRCULAR             0.40                 0.00                 0.00                 0.00                                    1
AY160_AY159          CIRCULAR             0.40                 0.00                 0.00                 0.00                                    1
BY22_BY23            CIRCULAR             0.80                 0.00                 0.00                 0.00                                    1
AY108_AY107          CIRCULAR             0.40                 0.00                 0.00                 0.00                                    1
AY82_AY83            CIRCULAR             0.40                 0.00                 0.00                 0.00                                    1
CY130-2_CY130-1      CIRCULAR             0.20                 0.00                 0.00                 0.00                                    1
AY51_AY52            CIRCULAR             0.40                 0.00                 0.00                 0.00                                    1
AY71_AY72            CIRCULAR             0.40                 0.00                 0.00                 0.00                                    1
AY145_AY144          CIRCULAR             0.60                 0.00                 0.00                 0.00                                    1
CY135_CY133          CIRCULAR             0.40                 0.00                 0.00                 0.00                                    1
CY74T1_CY72T1        CIRCULAR             0.40                 0.00                 0.00                 0.00                                    1
CY97_CY96            CIRCULAR             0.20                 0.00                 0.00                 0.00                                    1
BY24_BY25            CIRCULAR             0.80                 0.00                 0.00                 0.00                                    1
AY149_AY155          CIRCULAR             0.40                 0.00                 0.00                 0.00                                    1
AY137_AY136          CIRCULAR             0.60                 0.00                 0.00                 0.00                                    1
CY128_CY124          CIRCULAR             0.20                 0.00                 0.00                 0.00                                    1
CY145-13_CY145-15    CIRCULAR             0.30                 0.00                 0.00                 0.00                                    1
AY135_AY134          CIRCULAR             0.60                 0.00                 0.00                 0.00                                    1
AYS8_AYS9            CIRCULAR             0.60                 0.00                 0.00                 0.00                                    1
AY86_AY87A           CIRCULAR             0.50                 0.00                 0.00                 0.00                                    1
AY72_AY73            CIRCULAR             0.40                 0.00                 0.00                 0.00                                    1
BY14_BY15            CIRCULAR             0.80                 0.00                 0.00                 0.00                                    1
CY145_CY145-1        CIRCULAR             0.30                 0.00                 0.00                 0.00                                    1
CY104_CY103          CIRCULAR             0.20                 0.00                 0.00                 0.00                                    1
CY111_CY114          CIRCULAR             0.60                 0.00                 0.00                 0.00                                    1
DY419_DY421          CIRCULAR             0.60                 0.00                 0.00                 0.00                                    1
BY2_BY3              CIRCULAR             0.80                 0.00                 0.00                 0.00                                    1
AYS10_AYS11          CIRCULAR             0.60                 0.00                 0.00                 0.00                                    1
AY44_AY45            CIRCULAR             0.40                 0.00                 0.00                 0.00                                    1
BY105_BY104          CIRCULAR             0.80                 0.00                 0.00                 0.00                                    1
AY90_CY156           CIRCULAR             0.50                 0.00                 0.00                 0.00                                    1
DY502_DY503          CIRCULAR             0.60                 0.00                 0.00                 0.00                                    1
DY386_DY384          CIRCULAR             0.60                 0.00                 0.00                 0.00                                    1
CY71_CY70            CIRCULAR             0.20                 0.00                 0.00                 0.00                                    1
CY102_CY106          CIRCULAR             0.60                 0.00                 0.00                 0.00                                    1
BY108_BY107          CIRCULAR             0.80                 0.00                 0.00                 0.00                                    1
BY180_BY180-3        CIRCULAR             0.40                 0.00                 0.00                 0.00                                    1
DY425_DY437          CIRCULAR             0.60                 0.00                 0.00                 0.00                                    1
AY155_AY156          CIRCULAR             0.40                 0.00                 0.00                 0.00                                    1
AY139_AY138          CIRCULAR             0.60                 0.00                 0.00                 0.00                                    1
AY80_AY81            CIRCULAR             0.50                 0.00                 0.00                 0.00                                    1
AY126_AY125          CIRCULAR             0.60                 0.00                 0.00                 0.00                                    1
AY48_AY49            CIRCULAR             0.40                 0.00                 0.00                 0.00                                    1
BY175_BY176          CIRCULAR             0.40                 0.00                 0.00                 0.00                                    1
AY54-16_AY54-19      CIRCULAR             0.40                 0.00                 0.00                 0.00                                    1
CY126_CY128          CIRCULAR             0.20                 0.00                 0.00                 0.00                                    1
BY169_BY170          CIRCULAR             0.40                 0.00                 0.00                 0.00                                    1
AY75-2_AY75          CIRCULAR             0.30                 0.00                 0.00                 0.00                                    1
AY75-1_AY75          CIRCULAR             0.30                 0.00                 0.00                 0.00                                    1
AY190_AY191          CIRCULAR             0.40                 0.00                 0.00                 0.00                                    1
BY179_BY180          CIRCULAR             0.40                 0.00                 0.00                 0.00                                    1
CY145-20_CY145-18    CIRCULAR             0.20                 0.00                 0.00                 0.00                                    1
AY117_AY116          CIRCULAR             0.50                 0.00                 0.00                 0.00                                    1
DY431_DY433          CIRCULAR             0.60                 0.00                 0.00                 0.00                                    1
AY114_AY113          CIRCULAR             0.50                 0.00                 0.00                 0.00                                    1
BY20_BY21            CIRCULAR             0.80                 0.00                 0.00                 0.00                                    1
AY115_AY114          CIRCULAR             0.50                 0.00                 0.00                 0.00                                    1
AY75_AY74A           CIRCULAR             0.30                 0.00                 0.00                 0.00                                    1
DY437_DY441          CIRCULAR             0.60                 0.00                 0.00                 0.00                                    1
CY62T2_AY139         CIRCULAR             0.60                 0.00                 0.00                 0.00                                    1
AY197_AY198          CIRCULAR             0.30                 0.00                 0.00                 0.00                                    1
CY109_CY108          CIRCULAR             0.20                 0.00                 0.00                 0.00                                    1
AY78_AY79            CIRCULAR             0.40                 0.00                 0.00                 0.00                                    1
BY113_BY113-1        CIRCULAR             0.80                 0.00                 0.00                 0.00                                    1
AY134_AY133          CIRCULAR             0.60                 0.00                 0.00                 0.00                                    1
AY131_AY130          CIRCULAR             0.60                 0.00                 0.00                 0.00                                    1
CY157-1_AY91         CIRCULAR             0.60                 0.00                 0.00                 0.00                                    1
DY418_DY419          CIRCULAR             0.60                 0.00                 0.00                 0.00                                    1
AY148_AY147          CIRCULAR             0.40                 0.00                 0.00                 0.00                                    1
GY194_GY196          CIRCULAR             0.60                 0.00                 0.00                 0.00                                    1
CY107_CY105          CIRCULAR             0.20                 0.00                 0.00                 0.00                                    1
AY74--1_AY74A        CIRCULAR             0.30                 0.00                 0.00                 0.00                                    1
CY145-10_CY145-13    CIRCULAR             0.30                 0.00                 0.00                 0.00                                    1
BY107_BY106          CIRCULAR             0.80                 0.00                 0.00                 0.00                                    1
AY201_AY202X         CIRCULAR             0.30                 0.00                 0.00                 0.00                                    1
BY181_BY182          CIRCULAR             0.40                 0.00                 0.00                 0.00                                    1
CY145-17_CY145-18    CIRCULAR             0.30                 0.00                 0.00                 0.00                                    1
AY20_AY19            CIRCULAR             0.60                 0.00                 0.00                 0.00                                    1
CY105_CY106          CIRCULAR             0.20                 0.00                 0.00                 0.00                                    1
GY205_GY207          CIRCULAR             0.60                 0.00                 0.00                 0.00                                    1
CY86_CY85            CIRCULAR             0.20                 0.00                 0.00                 0.00                                    1
AY85_AY86            CIRCULAR             0.50                 0.00                 0.00                 0.00                                    1
CY112_CY111          CIRCULAR             0.20                 0.00                 0.00                 0.00                                    1
AY28_AY27            CIRCULAR             0.60                 0.00                 0.00                 0.00                                    1
DY520_DY517          CIRCULAR             0.60                 0.00                 0.00                 0.00                                    1
DY384_DY383          CIRCULAR             0.60                 0.00                 0.00                 0.00                                    1
GY251_GY255          CIRCULAR             0.60                 0.00                 0.00                 0.00                                    1
AY55-4_AY55-3        CIRCULAR             0.30                 0.00                 0.00                 0.00                                    1
CY98_CY97            CIRCULAR             0.20                 0.00                 0.00                 0.00                                    1
AY34_AY33            CIRCULAR             0.60                 0.00                 0.00                 0.00                                    1
GY226_GY227          CIRCULAR             0.60                 0.00                 0.00                 0.00                                    1
DY398_DY396          CIRCULAR             0.60                 0.00                 0.00                 0.00                                    1
BY173_BY174          CIRCULAR             0.40                 0.00                 0.00                 0.00                                    1
DY423_DY426          CIRCULAR             0.60                 0.00                 0.00                 0.00                                    1
DY428_DY425          CIRCULAR             0.60                 0.00                 0.00                 0.00                                    1
AY198_AY199          CIRCULAR             0.30                 0.00                 0.00                 0.00                                    1
CY137_CY135          CIRCULAR             0.40                 0.00                 0.00                 0.00                                    1
AY207_AY208          CIRCULAR             0.30                 0.00                 0.00                 0.00                                    1
AY86-2_AY86          CIRCULAR             0.50                 0.00                 0.00                 0.00                                    1
AYS12_AYS13          CIRCULAR             0.60                 0.00                 0.00                 0.00                                    1
AY54-15_AY54-13      CIRCULAR             0.30                 0.00                 0.00                 0.00                                    1
GY258_GY260          CIRCULAR             0.60                 0.00                 0.00                 0.00                                    1
BY1_BY2              CIRCULAR             0.80                 0.00                 0.00                 0.00                                    1
CY87_CY90            CIRCULAR             0.60                 0.00                 0.00                 0.00                                    1
AY55-2_AY55          CIRCULAR             0.30                 0.00                 0.00                 0.00                                    1
CY1208_CY1211        CIRCULAR             0.40                 0.00                 0.00                 0.00                                    1
AY191_AY192          CIRCULAR             0.40                 0.00                 0.00                 0.00                                    1
DY383_GY226          CIRCULAR             0.60                 0.00                 0.00                 0.00                                    1
CY118_CY119          CIRCULAR             0.20                 0.00                 0.00                 0.00                                    1
CY62T2_AY142         CIRCULAR             0.60                 0.00                 0.00                 0.00                                    1
GY198_GY200          CIRCULAR             0.60                 0.00                 0.00                 0.00                                    1
AY204_AY205FP        CIRCULAR             0.30                 0.00                 0.00                 0.00                                    1
AY58_AY57            CIRCULAR             0.20                 0.00                 0.00                 0.00                                    1
AY93-3_AY93          CIRCULAR             0.40                 0.00                 0.00                 0.00                                    1
CY145-18_CY145-22    CIRCULAR             0.80                 0.00                 0.00                 0.00                                    1
AY216_AY217          CIRCULAR             0.30                 0.00                 0.00                 0.00                                    1
AY68-1_AY68          CIRCULAR             0.30                 0.00                 0.00                 0.00                                    1
AY61_AY60            CIRCULAR             0.40                 0.00                 0.00                 0.00                                    1
AY199_AY200          CIRCULAR             0.30                 0.00                 0.00                 0.00                                    1
BY171_BY172          CIRCULAR             0.40                 0.00                 0.00                 0.00                                    1
AY55-3_AY55-6        CIRCULAR             0.40                 0.00                 0.00                 0.00                                    1
AY203_AY204          CIRCULAR             0.30                 0.00                 0.00                 0.00                                    1
AY323_AY324          CIRCULAR             1.00                 0.00                 0.00                 0.00                                    1
AY200_AY201          CIRCULAR             0.30                 0.00                 0.00                 0.00                                    1
BY112-1_BY112        CIRCULAR             0.80                 0.00                 0.00                 0.00                                    1
AY55-6_AY55-11       CIRCULAR             0.40                 0.00                 0.00                 0.00                                    1
AY66_AY67            CIRCULAR             0.40                 0.00                 0.00                 0.00                                    1
AY193_AY194          CIRCULAR             0.30                 0.00                 0.00                 0.00                                    1
GY212_GY213          CIRCULAR             0.60                 0.00                 0.00                 0.00                                    1
BY27_BY28            CIRCULAR             0.80                 0.00                 0.00                 0.00                                    1
BY128_BY128X         CIRCULAR             0.80                 0.00                 0.00                 0.00                                    1
DY503_DY504          CIRCULAR             0.60                 0.00                 0.00                 0.00                                    1
CY93_CY96            CIRCULAR             0.60                 0.00                 0.00                 0.00                                    1
AY67-2_AY67          CIRCULAR             0.30                 0.00                 0.00                 0.00                                    1
AYS11_AYS12          CIRCULAR             0.60                 0.00                 0.00                 0.00                                    1
BY110_BY109          CIRCULAR             0.80                 0.00                 0.00                 0.00                                    1
CY157_CY159          CIRCULAR             0.60                 0.00                 0.00                 0.00                                    1
AY42_AY17            CIRCULAR             0.40                 0.00                 0.00                 0.00                                    1
BY128X_BY126         CIRCULAR             0.80                 0.00                 0.00                 0.00                                    1
CY69_CY74            CIRCULAR             0.60                 0.00                 0.00                 0.00                                    1
AY147_AY146          CIRCULAR             0.40                 0.00                 0.00                 0.00                                    1
AY209_AY210          CIRCULAR             0.30                 0.00                 0.00                 0.00                                    1
DY511_DY509          CIRCULAR             0.60                 0.00                 0.00                 0.00                                    1
DY517_DY515          CIRCULAR             0.60                 0.00                 0.00                 0.00                                    1
AY89_AY90            CIRCULAR             0.50                 0.00                 0.00                 0.00                                    1
AY136_AY135          CIRCULAR             0.60                 0.00                 0.00                 0.00                                    1
AY217_AY218          CIRCULAR             0.30                 0.00                 0.00                 0.00                                    1
AY57-5_AY57-4        CIRCULAR             0.20                 0.00                 0.00                 0.00                                    1
AY210_AY211          CIRCULAR             0.30                 0.00                 0.00                 0.00                                    1
BY23_BY24            CIRCULAR             0.80                 0.00                 0.00                 0.00                                    1
AY54-12_AY54-10      CIRCULAR             0.30                 0.00                 0.00                 0.00                                    1
AY55-8_AY55-7        CIRCULAR             0.30                 0.00                 0.00                 0.00                                    1
AY212_AY213          CIRCULAR             0.30                 0.00                 0.00                 0.00                                    1
CY1213_CY1216        CIRCULAR             0.40                 0.00                 0.00                 0.00                                    1
CY117_CY118          CIRCULAR             0.20                 0.00                 0.00                 0.00                                    1
GY249_GY251          CIRCULAR             0.60                 0.00                 0.00                 0.00                                    1
DY526_DY524          CIRCULAR             0.60                 0.00                 0.00                 0.00                                    1
CY68T1_CY66T1        CIRCULAR             0.40                 0.00                 0.00                 0.00                                    1
AY124_AY123          CIRCULAR             0.50                 0.00                 0.00                 0.00                                    1
AY66-1_AY66          CIRCULAR             0.30                 0.00                 0.00                 0.00                                    1
BY1-2_BY1            CIRCULAR             0.30                 0.00                 0.00                 0.00                                    1
AY99_AY100           CIRCULAR             0.30                 0.00                 0.00                 0.00                                    1
CY71T1_CY70T1        CIRCULAR             0.40                 0.00                 0.00                 0.00                                    1
BY188_BY189          CIRCULAR             0.30                 0.00                 0.00                 0.00                                    1
CY153_CY156          CIRCULAR             0.40                 0.00                 0.00                 0.00                                    1
BY175-2_BY175        CIRCULAR             0.40                 0.00                 0.00                 0.00                                    1
GY227_GY230          CIRCULAR             0.60                 0.00                 0.00                 0.00                                    1
AY50_AY51            CIRCULAR             0.40                 0.00                 0.00                 0.00                                    1
AY122_AY121          CIRCULAR             0.50                 0.00                 0.00                 0.00                                    1
AY109_AY108          CIRCULAR             0.40                 0.00                 0.00                 0.00                                    1
DY409_DY406          CIRCULAR             0.80                 0.00                 0.00                 0.00                                    1
AY60_BY123           CIRCULAR             0.80                 0.00                 0.00                 0.00                                    1
AY116_AY115          CIRCULAR             0.50                 0.00                 0.00                 0.00                                    1
CY78_CYCSK22         CIRCULAR             0.60                 0.00                 0.00                 0.00                                    1
AY121_AY120          CIRCULAR             0.50                 0.00                 0.00                 0.00                                    1
AY101_AY100          CIRCULAR             0.40                 0.00                 0.00                 0.00                                    1
CY130_CY130-1        CIRCULAR             0.40                 0.00                 0.00                 0.00                                    1
AY320_AY321          CIRCULAR             0.80                 0.00                 0.00                 0.00                                    1
AYS5_AYS6            CIRCULAR             0.60                 0.00                 0.00                 0.00                                    1
BY120_BY119          CIRCULAR             0.80                 0.00                 0.00                 0.00                                    1
AY83_AY85            CIRCULAR             0.40                 0.00                 0.00                 0.00                                    1
DY394_DY393          CIRCULAR             0.60                 0.00                 0.00                 0.00                                    1
CY113_CY112          CIRCULAR             0.20                 0.00                 0.00                 0.00                                    1
BY10_BY11            CIRCULAR             0.80                 0.00                 0.00                 0.00                                    1
CY132_CY131          CIRCULAR             0.40                 0.00                 0.00                 0.00                                    1
GY228_GY227          CIRCULAR             0.60                 0.00                 0.00                 0.00                                    1
AY55-9_AY55-10       CIRCULAR             0.30                 0.00                 0.00                 0.00                                    1
BY187_BY188          CIRCULAR             0.30                 0.00                 0.00                 0.00                                    1
AY105_AY104          CIRCULAR             0.40                 0.00                 0.00                 0.00                                    1
BY189_BY190          CIRCULAR             0.30                 0.00                 0.00                 0.00                                    1
AY195_AY196          CIRCULAR             0.30                 0.00                 0.00                 0.00                                    1
AY16-1_AY16-2        CIRCULAR             0.80                 0.00                 0.00                 0.00                                    1
AY144_AY143          CIRCULAR             0.60                 0.00                 0.00                 0.00                                    1
CY100_CY99           CIRCULAR             0.20                 0.00                 0.00                 0.00                                    1
AY55_AY55-3          CIRCULAR             0.40                 0.00                 0.00                 0.00                                    1
AY111_AY110          CIRCULAR             0.40                 0.00                 0.00                 0.00                                    1
GY196_GY198          CIRCULAR             0.60                 0.00                 0.00                 0.00                                    1
DY396_DY394          CIRCULAR             0.60                 0.00                 0.00                 0.00                                    1
GY240_GY242          CIRCULAR             0.60                 0.00                 0.00                 0.00                                    1
AY36_AY35            CIRCULAR             0.60                 0.00                 0.00                 0.00                                    1
CY62T1_CY62T2        CIRCULAR             0.40                 0.00                 0.00                 0.00                                    1
BY118_AY51           CIRCULAR             0.80                 0.00                 0.00                 0.00                                    1
BY3_BY4              CIRCULAR             0.80                 0.00                 0.00                 0.00                                    1
AY69-2_AY69          CIRCULAR             0.30                 0.00                 0.00                 0.00                                    1
DY406_DY405          CIRCULAR             0.80                 0.00                 0.00                 0.00                                    1
CY145-3_CY145-6      CIRCULAR             0.30                 0.00                 0.00                 0.00                                    1
CY161_CY163          CIRCULAR             0.60                 0.00                 0.00                 0.00                                    1
AY150_AY149          CIRCULAR             0.40                 0.00                 0.00                 0.00                                    1
AY52_AY53            CIRCULAR             0.40                 0.00                 0.00                 0.00                                    1
AY17_AY16            CIRCULAR             0.60                 0.00                 0.00                 0.00                                    1
AY322_BY175          CIRCULAR             0.40                 0.00                 0.00                 0.00                                    1
CY69T1_CY68T1        CIRCULAR             0.40                 0.00                 0.00                 0.00                                    1
CY151_CY153          CIRCULAR             0.40                 0.00                 0.00                 0.00                                    1
AY62_AY61            CIRCULAR             0.40                 0.00                 0.00                 0.00                                    1
AY25_AY24            CIRCULAR             0.60                 0.00                 0.00                 0.00                                    1
BY19_BY20            CIRCULAR             0.80                 0.00                 0.00                 0.00                                    1
CY119_CY120          CIRCULAR             0.60                 0.00                 0.00                 0.00                                    1
AY47_AY330           CIRCULAR             0.40                 0.00                 0.00                 0.00                                    1
BY112_BY112X         CIRCULAR             0.80                 0.00                 0.00                 0.00                                    1
BY130_BY129          CIRCULAR             0.80                 0.00                 0.00                 0.00                                    1
AY319_AY320          CIRCULAR             0.80                 0.00                 0.00                 0.00                                    1
BY169_AYS8           CIRCULAR             0.60                 0.00                 0.00                 0.00                                    1
BY176-3_BY176        CIRCULAR             0.40                 0.00                 0.00                 0.00                                    1
AYS7_AYS8            CIRCULAR             0.60                 0.00                 0.00                 0.00                                    1
AY98_AY97            CIRCULAR             0.40                 0.00                 0.00                 0.00                                    1
AY125_AY124          CIRCULAR             0.60                 0.00                 0.00                 0.00                                    1
BY178A_BY108         CIRCULAR             0.40                 0.00                 0.00                 0.00                                    1
AY32_AY31            CIRCULAR             0.60                 0.00                 0.00                 0.00                                    1
CY124_CY125          CIRCULAR             0.20                 0.00                 0.00                 0.00                                    1
CY145-9_CY145-10     CIRCULAR             0.30                 0.00                 0.00                 0.00                                    1
BY119_BY118          CIRCULAR             0.80                 0.00                 0.00                 0.00                                    1
CY66T1_CY64T1        CIRCULAR             0.40                 0.00                 0.00                 0.00                                    1
DY400_DY398          CIRCULAR             0.60                 0.00                 0.00                 0.00                                    1
CY145-1_CY145-3      CIRCULAR             0.30                 0.00                 0.00                 0.00                                    1
DY522_DY520          CIRCULAR             0.60                 0.00                 0.00                 0.00                                    1
AY35_AY34            CIRCULAR             0.60                 0.00                 0.00                 0.00                                    1
AY192_AY193          CIRCULAR             0.30                 0.00                 0.00                 0.00                                    1
AY211_AY212          CIRCULAR             0.30                 0.00                 0.00                 0.00                                    1
AY45_AY46            CIRCULAR             0.40                 0.00                 0.00                 0.00                                    1
AY66_AY29            CIRCULAR             0.40                 0.00                 0.00                 0.00                                    1
AY54-14_AY54-13      CIRCULAR             0.30                 0.00                 0.00                 0.00                                    1
CY70T1_CY69T1        CIRCULAR             0.40                 0.00                 0.00                 0.00                                    1
AY70_BY130           CIRCULAR             0.80                 0.00                 0.00                 0.00                                    1
CY114_CY119          CIRCULAR             0.60                 0.00                 0.00                 0.00                                    1
AY95_AY94            CIRCULAR             0.40                 0.00                 0.00                 0.00                                    1
CY103_CY102          CIRCULAR             0.20                 0.00                 0.00                 0.00                                    1
AY328_AY329          CIRCULAR             1.00                 0.00                 0.00                 0.00                                    1
BY5_BY6              CIRCULAR             0.80                 0.00                 0.00                 0.00                                    1
BY182-2_BY182        CIRCULAR             0.40                 0.00                 0.00                 0.00                                    1
AY152_AY150          CIRCULAR             0.40                 0.00                 0.00                 0.00                                    1
BY18_BY19            CIRCULAR             0.80                 0.00                 0.00                 0.00                                    1
AY29_AY28            CIRCULAR             0.60                 0.00                 0.00                 0.00                                    1
AY123_AY122          CIRCULAR             0.50                 0.00                 0.00                 0.00                                    1
CY131_CY130          CIRCULAR             0.40                 0.00                 0.00                 0.00                                    1
CY94_CY93            CIRCULAR             0.20                 0.00                 0.00                 0.00                                    1
AYS9_AYS10           CIRCULAR             0.60                 0.00                 0.00                 0.00                                    1
BY122_BY121          CIRCULAR             0.80                 0.00                 0.00                 0.00                                    1
BY123_BY122          CIRCULAR             0.80                 0.00                 0.00                 0.00                                    1
CY77_CY76            CIRCULAR             0.20                 0.00                 0.00                 0.00                                    1
AY70_AY71            CIRCULAR             0.40                 0.00                 0.00                 0.00                                    1
BY13_BY14            CIRCULAR             0.80                 0.00                 0.00                 0.00                                    1
BY25_BY25-2          CIRCULAR             0.80                 0.00                 0.00                 0.00                                    1
AY24-2_AY24          CIRCULAR             0.20                 0.00                 0.00                 0.00                                    1
BY116_BY114          CIRCULAR             0.80                 0.00                 0.00                 0.00                                    1
AY325-1_AY326        CIRCULAR             1.00                 0.00                 0.00                 0.00                                    1
AY92_AY91            CIRCULAR             0.60                 0.00                 0.00                 0.00                                    1
CY122_CY121          CIRCULAR             0.20                 0.00                 0.00                 0.00                                    1
BY28_BY29            CIRCULAR             0.80                 0.00                 0.00                 0.00                                    1
AY213_AY213CSK       CIRCULAR             0.30                 0.00                 0.00                 0.00                                    1
DY529_DY526          CIRCULAR             0.60                 0.00                 0.00                 0.00                                    1
DY390_DY388          CIRCULAR             0.60                 0.00                 0.00                 0.00                                    1
GY242_GY243          CIRCULAR             0.60                 0.00                 0.00                 0.00                                    1
AY317_AY318          CIRCULAR             0.50                 0.00                 0.00                 0.00                                    1
GY213_GY218          CIRCULAR             0.60                 0.00                 0.00                 0.00                                    1
BY108_BY179          CIRCULAR             0.40                 0.00                 0.00                 0.00                                    1
BY111_BY110          CIRCULAR             0.80                 0.00                 0.00                 0.00                                    1
CY83_CY82            CIRCULAR             0.20                 0.00                 0.00                 0.00                                    1
AY79_AY80            CIRCULAR             0.50                 0.00                 0.00                 0.00                                    1
AYS4_AYS5            CIRCULAR             0.60                 0.00                 0.00                 0.00                                    1
AY119_AY118          CIRCULAR             0.50                 0.00                 0.00                 0.00                                    1
CY145-19_CY145-20    CIRCULAR             0.20                 0.00                 0.00                 0.00                                    1
AY65-1_AY65          CIRCULAR             0.20                 0.00                 0.00                 0.00                                    1
BY177-4_BY177        CIRCULAR             0.40                 0.00                 0.00                 0.00                                    1
AY49_AY50            CIRCULAR             0.40                 0.00                 0.00                 0.00                                    1
CY115_CY114          CIRCULAR             0.20                 0.00                 0.00                 0.00                                    1
DY507_DY505          CIRCULAR             0.60                 0.00                 0.00                 0.00                                    1
CY95_CY94            CIRCULAR             0.20                 0.00                 0.00                 0.00                                    1
AYS14_AYS15-1        CIRCULAR             0.60                 0.00                 0.00                 0.00                                    1
GY207_GY210          CIRCULAR             0.60                 0.00                 0.00                 0.00                                    1
AY70_CY1199          CIRCULAR             0.60                 0.00                 0.00                 0.00                                    1
CY85_CY84            CIRCULAR             0.20                 0.00                 0.00                 0.00                                    1
AY146_AY145          CIRCULAR             0.40                 0.00                 0.00                 0.00                                    1
AY33_AY32            CIRCULAR             0.60                 0.00                 0.00                 0.00                                    1
BY121_BY120          CIRCULAR             0.80                 0.00                 0.00                 0.00                                    1
CY142_CY139          CIRCULAR             0.40                 0.00                 0.00                 0.00                                    1
AY27_AY26            CIRCULAR             0.60                 0.00                 0.00                 0.00                                    1
BY179-2_BY179        CIRCULAR             0.40                 0.00                 0.00                 0.00                                    1
CY149_CY147          CIRCULAR             0.60                 0.00                 0.00                 0.00                                    1
AY43_AY44            CIRCULAR             0.40                 0.00                 0.00                 0.00                                    1
BY181-4_BY181-5      CIRCULAR             0.40                 0.00                 0.00                 0.00                                    1
AY113_AY112          CIRCULAR             0.50                 0.00                 0.00                 0.00                                    1
AY86-10_AY86-7       CIRCULAR             0.40                 0.00                 0.00                 0.00                                    1
AY55-1_AY55          CIRCULAR             0.30                 0.00                 0.00                 0.00                                    1
CY72_CY74            CIRCULAR             0.20                 0.00                 0.00                 0.00                                    1
AY118_AY117          CIRCULAR             0.50                 0.00                 0.00                 0.00                                    1
AY327_AY328          CIRCULAR             1.00                 0.00                 0.00                 0.00                                    1
AY104_AY103          CIRCULAR             0.40                 0.00                 0.00                 0.00                                    1
CY96_CY99            CIRCULAR             0.60                 0.00                 0.00                 0.00                                    1
AY129_AY128          CIRCULAR             0.60                 0.00                 0.00                 0.00                                    1
AY53_AY54            CIRCULAR             0.40                 0.00                 0.00                 0.00                                    1
AYS2_AYS3            CIRCULAR             0.60                 0.00                 0.00                 0.00                                    1
AY54-10_AY54-13      CIRCULAR             0.40                 0.00                 0.00                 0.00                                    1
DY391_DY390          CIRCULAR             0.30                 0.00                 0.00                 0.00                                    1
AY143_AY142          CIRCULAR             0.60                 0.00                 0.00                 0.00                                    1
BY170_BY171          CIRCULAR             0.40                 0.00                 0.00                 0.00                                    1
CY76T1_CY74T1        CIRCULAR             0.40                 0.00                 0.00                 0.00                                    1
DY414_DY413          CIRCULAR             0.60                 0.00                 0.00                 0.00                                    1
AY60_AY59            CIRCULAR             0.40                 0.00                 0.00                 0.00                                    1
AY102_AY101          CIRCULAR             0.40                 0.00                 0.00                 0.00                                    1
DY441_DY445          CIRCULAR             0.60                 0.00                 0.00                 0.00                                    1
BY8_BY9              CIRCULAR             0.80                 0.00                 0.00                 0.00                                    1
DY394_DY411          CIRCULAR             0.60                 0.00                 0.00                 0.00                                    1
FP9-1_AY76           CIRCULAR             0.40                 0.00                 0.00                 0.00                                    1
AY16_AY16-1          CIRCULAR             0.80                 0.00                 0.00                 0.00                                    1
GY260_GY263          CIRCULAR             0.60                 0.00                 0.00                 0.00                                    1
BY190_BY191          CIRCULAR             0.30                 0.00                 0.00                 0.00                                    1
AY87A_AY88           CIRCULAR             0.50                 0.00                 0.00                 0.00                                    1
AY54-13_AY54-16      CIRCULAR             0.40                 0.00                 0.00                 0.00                                    1
AY120_AY119          CIRCULAR             0.50                 0.00                 0.00                 0.00                                    1
AY81_BY191           CIRCULAR             0.50                 0.00                 0.00                 0.00                                    1
BY191_AY82           CIRCULAR             0.40                 0.00                 0.00                 0.00                                    1
AY92_AY93-3          CIRCULAR             0.60                 0.00                 0.00                 0.00                                    1
CY130-1_CY145-22     CIRCULAR             0.20                 0.00                 0.00                 0.00                                    1
AY214_myoutfall2     CIRCULAR             0.30                 0.00                 0.00                 0.00                                    1
CY145-22_myoutfall1  CIRCULAR             0.80                 0.00                 0.00                 0.00                                    1

[CURVES]
;Name                Type                X                   Y
;-------------------- ------------------- ------------------- -------------------
大渠荡_Curve            STORAGE 0.00                 0.00                
大渠荡_Curve            1.16                 21019.83            
大渠荡_Curve            2.32                 93796.57            
大渠荡_Curve            3.48                 233230.72           
大渠荡_Curve            4.64                 448348.41           
大渠荡_Curve            5.80                 746118.52           
大洋港_Curve            STORAGE 0.00                 0.00                
大洋港_Curve            1.16                 713.84              
大洋港_Curve            2.32                 3185.34             
大洋港_Curve            3.48                 7920.54             
大洋港_Curve            4.64                 15225.97            
大洋港_Curve            5.80                 25338.27            
甘溪市河_Curve           STORAGE 0.00                 0.00                
甘溪市河_Curve           1.16                 1790.04             
甘溪市河_Curve           2.32                 7987.68             
甘溪市河_Curve           3.48                 19861.84            
甘溪市河_Curve           4.64                 38181.18            
甘溪市河_Curve           5.80                 63539.16            
三白荡_Curve            STORAGE 0.00                 0.00                
三白荡_Curve            1.16                 13301.28            
三白荡_Curve            2.32                 59354.16            
三白荡_Curve            3.48                 147587.62           
三白荡_Curve            4.64                 283713.38           
三白荡_Curve            5.80                 472141.32           
行政河_Curve            STORAGE 0.00                 0.00                
行政河_Curve            1.16                 470.31              
行政河_Curve            2.32                 2098.65             
行政河_Curve            3.48                 5218.41             
行政河_Curve            4.64                 10031.56            
行政河_Curve            5.80                 16694.00            
洋砂荡_Curve            STORAGE 0.00                 0.00                
洋砂荡_Curve            1.16                 20607.61            
洋砂荡_Curve            2.32                 91957.09            
洋砂荡_Curve            3.48                 228656.74           
洋砂荡_Curve            4.64                 439555.66           
洋砂荡_Curve            5.80                 731486.08           

[REPORT]
INPUT           NO
CONTROLS        NO
SUBCATCHMENTS   ALL
NODES           ALL
LINKS           ALL
[MAP]
DIMENSIONS    580006.25    3434298.12    581573.71    3436023.17
Units    None

[POLYGONS]
;Name           X              Y
1    581050.36    3435659.87
1    581046.28    3435658.75
1    581036.31    3435697.33
1    581039.36    3435698.19
1    581041.39    3435698.70
1    581050.36    3435659.87
2    580782.17    3434929.60
2    580776.28    3434911.02
2    580748.80    3434919.27
2    580759.93    3434970.09
2    580782.17    3434929.60
3    580688.56    3435860.70
3    580692.70    3435850.75
3    580671.47    3435846.99
3    580671.27    3435847.47
3    580670.60    3435852.37
3    580687.82    3435861.66
3    580688.56    3435860.70
4    581027.47    3435736.92
4    581033.33    3435697.13
4    581015.89    3435692.30
4    581015.12    3435695.23
4    581014.15    3435699.31
4    581014.11    3435699.54
4    581013.73    3435701.45
4    581012.89    3435706.58
4    581011.74    3435715.30
4    581011.70    3435715.62
4    581011.33    3435718.73
4    581010.63    3435725.25
4    581010.33    3435729.50
4    581010.32    3435729.79
4    581010.31    3435730.04
4    581010.27    3435731.05
4    581010.25    3435735.88
4    581010.27    3435736.40
4    581024.77    3435737.29
4    581027.47    3435736.92
5    580687.82    3435861.66
5    580670.60    3435852.37
5    580665.50    3435864.71
5    580680.32    3435870.75
5    580683.30    3435872.65
5    580687.82    3435861.66
6    580347.04    3435328.12
6    580348.78    3435299.86
6    580347.17    3435298.56
6    580322.30    3435327.24
6    580323.13    3435328.33
6    580347.04    3435328.12
7    580473.17    3435680.08
7    580460.81    3435652.74
7    580398.17    3435679.45
7    580395.28    3435686.82
7    580393.24    3435698.82
7    580390.90    3435704.76
7    580393.53    3435714.07
7    580473.17    3435680.08
8    581012.50    3434831.77
8    581010.66    3434826.55
8    580994.63    3434834.85
8    580989.72    3434835.78
8    580984.47    3434840.28
8    580991.36    3434848.69
8    580999.62    3434872.91
8    581024.27    3434865.91
8    581020.93    3434857.45
8    581020.82    3434857.19
8    581020.77    3434857.05
8    581017.89    3434850.38
8    581017.83    3434850.24
8    581017.76    3434850.07
8    581014.82    3434843.26
8    581014.42    3434842.33
8    581014.27    3434842.00
8    581014.19    3434841.83
8    581014.13    3434841.71
8    581012.72    3434838.56
8    581012.16    3434836.95
8    581011.89    3434835.81
8    581011.87    3434835.68
8    581011.86    3434835.63
8    581011.72    3434834.54
8    581011.72    3434834.52
8    581013.25    3434833.92
8    581012.50    3434831.77
9    580669.20    3435674.22
9    580641.00    3435679.31
9    580639.50    3435681.27
9    580640.51    3435758.69
9    580650.17    3435762.01
9    580668.97    3435764.29
9    580669.20    3435674.22
10    580292.14    3434836.87
10    580276.53    3434836.71
10    580272.64    3434868.23
10    580291.65    3434872.46
10    580292.14    3434836.87
11    580774.41    3435677.11
11    580772.27    3435639.44
11    580753.13    3435632.28
11    580752.82    3435676.45
11    580753.47    3435677.17
11    580774.35    3435677.18
11    580774.41    3435677.11
12    580393.25    3434983.15
12    580406.49    3434816.09
12    580380.48    3434818.54
12    580378.90    3434839.06
12    580367.85    3434980.13
12    580388.45    3434983.68
12    580393.25    3434983.15
13    580946.24    3435906.21
13    580938.32    3435891.46
13    580934.55    3435893.94
13    580928.45    3435897.79
13    580923.52    3435900.75
13    580919.79    3435902.84
13    580916.66    3435904.46
13    580915.40    3435905.07
13    580915.20    3435905.16
13    580912.58    3435906.30
13    580910.08    3435907.23
13    580907.68    3435907.95
13    580905.91    3435908.35
13    580908.55    3435919.45
13    580909.78    3435922.07
13    580946.24    3435906.21
14    580326.22    3435351.15
14    580323.13    3435328.33
14    580322.30    3435327.24
14    580315.19    3435323.16
14    580293.46    3435332.37
14    580286.60    3435349.11
14    580283.92    3435354.02
14    580297.60    3435363.84
14    580326.22    3435351.15
15    580829.28    3435075.97
15    580797.39    3435072.98
15    580795.02    3435103.39
15    580826.49    3435105.93
15    580829.28    3435075.97
16    580844.59    3435916.48
16    580852.53    3435876.59
16    580859.18    3435871.00
16    580862.18    3435865.51
16    580795.30    3435866.18
16    580790.94    3435875.59
16    580792.92    3435889.29
16    580791.28    3435896.82
16    580796.76    3435910.38
16    580830.12    3435919.07
16    580832.36    3435920.63
16    580844.59    3435916.48
17    580821.22    3434978.95
17    580821.38    3434978.84
17    580810.45    3434950.61
17    580809.09    3434950.69
17    580759.74    3434971.37
17    580745.13    3434999.94
17    580821.22    3434978.95
18    580627.34    3435619.61
18    580640.75    3435610.18
18    580680.87    3435569.99
18    580680.56    3435567.75
18    580670.62    3435561.15
18    580641.02    3435560.96
18    580601.78    3435572.89
18    580576.80    3435590.09
18    580576.93    3435608.43
18    580592.94    3435619.57
18    580613.91    3435627.32
18    580627.34    3435619.61
19    581067.71    3435406.60
19    581071.49    3435361.15
19    581039.24    3435367.20
19    581032.03    3435454.75
19    581032.12    3435454.66
19    581034.59    3435451.56
19    581037.78    3435447.19
19    581041.11    3435442.56
19    581044.00    3435438.52
19    581046.71    3435434.22
19    581048.63    3435431.17
19    581050.66    3435426.40
19    581053.20    3435420.28
19    581055.35    3435414.89
19    581057.03    3435410.55
19    581057.76    3435407.42
19    581058.13    3435406.15
19    581058.14    3435406.15
19    581058.50    3435405.98
19    581060.13    3435405.02
19    581060.97    3435404.58
19    581061.54    3435404.42
19    581062.06    3435404.46
19    581062.47    3435404.73
19    581063.13    3435405.44
19    581063.75    3435406.11
19    581063.79    3435406.14
19    581064.20    3435406.43
19    581064.87    3435406.72
19    581065.72    3435406.86
19    581066.74    3435406.82
19    581067.71    3435406.60
20    581009.88    3435855.63
20    581009.29    3435855.23
20    581005.54    3435852.86
20    581003.96    3435852.26
20    580980.42    3435884.49
20    580981.96    3435886.15
20    581009.88    3435855.63
21    580629.13    3435128.33
21    580618.93    3435121.22
21    580531.64    3435112.90
21    580496.40    3435141.35
21    580491.63    3435147.34
21    580649.62    3435156.19
21    580629.13    3435128.33
22    581414.34    3435079.06
22    581443.42    3435053.02
22    581452.26    3435040.84
22    581347.44    3435054.78
22    581347.55    3435084.15
22    581414.34    3435079.06
23    580345.84    3434997.65
23    580294.12    3435017.21
23    580286.86    3435053.37
23    580279.36    3435094.64
23    580286.94    3435095.27
23    580287.07    3435097.07
23    580287.33    3435097.29
23    580288.26    3435097.09
23    580288.46    3435096.89
23    580296.25    3435100.62
23    580296.40    3435100.88
23    580297.10    3435101.60
23    580298.12    3435102.16
23    580299.06    3435102.36
23    580299.11    3435102.37
23    580300.58    3435102.38
23    580327.71    3435106.03
23    580335.03    3435111.68
23    580336.54    3435111.97
23    580345.84    3434997.65
24    580773.85    3435701.62
24    580774.35    3435677.18
24    580753.47    3435677.17
24    580752.95    3435718.14
24    580773.85    3435701.62
25    580788.76    3435278.31
25    580789.48    3435264.83
25    580764.24    3435248.03
25    580737.41    3435237.12
25    580712.75    3435240.78
25    580716.34    3435247.85
25    580746.85    3435283.91
25    580759.15    3435289.45
25    580788.76    3435278.31
26    580469.95    3434805.62
26    580474.25    3434787.75
26    580473.96    3434784.12
26    580475.09    3434770.02
26    580455.82    3434765.82
26    580446.41    3434768.39
26    580439.26    3434789.57
26    580423.48    3434985.04
26    580429.82    3434986.98
26    580455.09    3434987.10
26    580469.95    3434805.62
27    581342.41    3435348.08
27    581355.06    3435333.33
27    581362.43    3435327.06
27    581324.21    3435313.71
27    581321.85    3435313.73
27    581310.91    3435360.10
27    581342.41    3435348.08
28    580517.54    3434988.21
28    580545.62    3434962.96
28    580547.32    3434960.04
28    580552.50    3434895.02
28    580552.23    3434895.03
28    580551.94    3434895.05
28    580545.91    3434895.25
28    580541.03    3434895.25
28    580538.18    3434895.10
28    580537.89    3434895.07
28    580537.71    3434895.06
28    580534.90    3434894.66
28    580531.17    3434893.94
28    580528.76    3434893.40
28    580528.58    3434893.36
28    580528.32    3434893.30
28    580523.77    3434892.12
28    580515.99    3434989.09
28    580517.54    3434988.21
29    581452.71    3435404.15
29    581467.30    3435310.23
29    581464.14    3435309.95
29    581449.39    3435314.99
29    581435.22    3435310.14
29    581432.47    3435311.33
29    581419.90    3435399.82
29    581451.44    3435405.06
29    581452.71    3435404.15
30    581107.36    3434883.41
30    581127.44    3434878.62
30    581130.90    3434877.17
30    581055.92    3434683.21
30    581045.96    3434684.01
30    581030.55    3434688.77
30    581030.20    3434694.65
30    581034.67    3434706.45
30    581103.14    3434884.03
30    581107.36    3434883.41
31    580699.57    3435404.60
31    580710.31    3435332.52
31    580709.54    3435331.48
31    580676.63    3435327.77
31    580675.50    3435328.75
31    580674.59    3435403.85
31    580686.62    3435405.67
31    580699.57    3435404.60
32    580286.66    3434884.03
32    580233.32    3434899.97
32    580287.29    3434903.39
32    580286.66    3434884.03
33    580644.77    3435848.68
33    580622.79    3435827.48
33    580622.05    3435828.65
33    580615.70    3435844.36
33    580632.48    3435851.26
33    580642.54    3435855.36
33    580644.23    3435851.27
33    580644.77    3435848.68
34    580586.77    3435461.14
34    580564.26    3435461.41
34    580560.71    3435464.54
34    580555.27    3435482.79
34    580562.21    3435486.41
34    580591.83    3435487.02
34    580586.77    3435461.14
35    580826.49    3435105.93
35    580795.02    3435103.39
35    580763.41    3435129.34
35    580762.99    3435130.06
35    580844.60    3435134.57
35    580826.49    3435105.93
36    580792.24    3435768.87
36    580794.98    3435766.47
36    580792.40    3435747.52
36    580723.79    3435748.45
36    580706.24    3435766.04
36    580709.39    3435769.89
36    580792.24    3435768.87
37    580338.37    3435378.67
37    580334.63    3435356.35
37    580326.22    3435351.15
37    580297.60    3435363.84
37    580301.98    3435383.12
37    580305.33    3435392.96
37    580338.37    3435378.67
38    581239.68    3435040.35
38    581222.84    3434895.94
38    581209.51    3434885.66
38    581187.50    3434876.22
38    581212.69    3435040.50
38    581213.60    3435040.60
38    581239.68    3435040.35
39    580898.81    3435537.49
39    580794.80    3435528.86
39    580789.02    3435542.47
39    580794.24    3435549.33
39    580898.81    3435537.49
40    580539.23    3435485.91
40    580539.20    3435452.24
40    580532.37    3435437.88
40    580515.88    3435429.14
40    580515.11    3435502.22
40    580539.23    3435485.91
41    580889.32    3435784.24
41    580795.84    3435786.64
41    580791.52    3435790.66
41    580796.14    3435807.77
41    580896.93    3435810.34
41    580896.97    3435802.94
41    580895.99    3435797.04
41    580894.44    3435793.44
41    580892.40    3435789.10
41    580889.32    3435784.24
42    580847.17    3435285.65
42    580849.96    3435281.38
42    580808.75    3435277.60
42    580797.82    3435281.62
42    580797.30    3435283.92
42    580799.73    3435301.84
42    580821.13    3435303.19
42    580847.17    3435285.65
43    581054.69    3435702.45
43    581041.39    3435698.70
43    581039.36    3435698.19
43    581030.73    3435737.13
43    581050.53    3435738.56
43    581050.69    3435737.45
43    581050.93    3435736.07
43    581050.97    3435735.88
43    581051.00    3435735.70
43    581051.95    3435730.79
43    581052.14    3435729.04
43    581052.13    3435727.64
43    581052.09    3435727.30
43    581052.06    3435727.12
43    581052.05    3435727.07
43    581051.42    3435724.43
43    581051.41    3435724.37
43    581051.40    3435724.32
43    581051.39    3435724.22
43    581051.40    3435723.13
43    581051.61    3435721.94
43    581052.05    3435720.45
43    581052.47    3435719.35
43    581052.53    3435719.22
43    581053.87    3435716.02
43    581054.22    3435714.84
43    581054.33    3435713.95
43    581054.26    3435713.20
43    581054.20    3435712.96
43    581054.15    3435712.84
43    581054.14    3435712.79
43    581053.73    3435712.05
43    581053.14    3435711.04
43    581053.01    3435710.69
43    581052.94    3435710.03
43    581053.05    3435709.21
43    581053.36    3435708.28
43    581053.46    3435708.07
43    581053.48    3435708.02
43    581053.50    3435707.97
43    581054.32    3435706.29
43    581054.47    3435705.71
43    581054.48    3435705.67
43    581054.48    3435705.62
43    581054.48    3435704.57
43    581054.47    3435704.22
43    581054.47    3435704.12
43    581054.58    3435702.93
43    581054.69    3435702.45
44    580748.20    3435852.30
44    580746.80    3435844.09
44    580736.66    3435831.05
44    580707.71    3435869.10
44    580705.86    3435873.13
44    580722.55    3435882.68
44    580748.20    3435852.30
45    580972.70    3435188.50
45    580984.57    3435038.18
45    580971.58    3435024.77
45    580945.45    3435007.86
45    580930.96    3435199.13
45    580953.29    3435200.48
45    580955.72    3435203.21
45    580957.62    3435203.62
45    580972.70    3435188.50
46    580954.86    3435922.09
46    580949.55    3435912.06
46    580910.37    3435924.53
46    580911.09    3435927.83
46    580913.17    3435936.44
46    580913.71    3435936.34
46    580916.58    3435935.64
46    580919.62    3435934.73
46    580921.23    3435934.18
46    580921.43    3435934.11
46    580921.50    3435934.08
46    580922.58    3435933.70
46    580924.37    3435933.05
46    580925.14    3435932.85
46    580925.22    3435932.83
46    580925.28    3435932.82
46    580927.00    3435932.55
46    580928.04    3435932.42
46    580928.10    3435932.41
46    580928.20    3435932.40
46    580930.85    3435931.97
46    580932.98    3435931.49
46    580933.14    3435931.44
46    580935.79    3435930.61
46    580939.23    3435929.49
46    580940.82    3435929.09
46    580940.89    3435929.08
46    580943.85    3435928.49
46    580944.17    3435928.40
46    580944.32    3435928.35
46    580945.42    3435927.89
46    580946.75    3435927.17
46    580948.67    3435925.90
46    580950.57    3435924.59
46    580950.70    3435924.51
46    580950.89    3435924.38
46    580953.07    3435923.07
46    580954.86    3435922.09
47    581131.35    3435184.68
47    581109.16    3435182.34
47    581061.50    3435176.11
47    581061.11    3435193.24
47    581066.86    3435221.21
47    581131.74    3435218.46
47    581131.36    3435209.07
47    581134.77    3435205.80
47    581137.37    3435203.51
47    581140.29    3435197.97
47    581139.55    3435186.02
47    581131.35    3435184.68
48    580796.62    3435302.94
48    580789.91    3435302.42
48    580787.97    3435334.23
48    580797.32    3435334.42
48    580796.62    3435302.94
49    580722.55    3435882.68
49    580705.86    3435873.13
49    580702.30    3435877.82
49    580703.92    3435880.57
49    580706.62    3435899.12
49    580707.74    3435902.04
49    580708.73    3435917.45
49    580722.55    3435882.68
50    580286.66    3434884.03
50    580291.65    3434872.46
50    580272.64    3434868.23
50    580215.09    3434861.05
50    580211.05    3434868.68
50    580222.54    3434871.42
50    580225.71    3434892.71
50    580225.43    3434899.89
50    580233.32    3434899.97
50    580286.66    3434884.03
51    580369.31    3435479.74
51    580375.03    3435468.41
51    580369.83    3435438.18
51    580362.16    3435433.66
51    580337.95    3435444.10
51    580337.30    3435453.27
51    580335.44    3435454.87
51    580330.21    3435455.72
51    580327.29    3435459.79
51    580322.12    3435461.79
51    580314.95    3435467.26
51    580301.89    3435469.88
51    580296.15    3435474.26
51    580289.57    3435478.07
51    580290.28    3435479.15
51    580290.58    3435480.09
51    580292.30    3435482.69
51    580293.64    3435485.07
51    580293.79    3435485.53
51    580293.77    3435485.85
51    580293.54    3435486.32
51    580291.68    3435494.07
51    580282.39    3435496.53
51    580280.69    3435505.12
51    580285.78    3435513.14
51    580286.30    3435515.17
51    580369.31    3435479.74
52    580622.15    3435415.59
52    580623.80    3435413.13
52    580562.69    3435411.28
52    580562.36    3435411.55
52    580561.52    3435431.14
52    580601.59    3435432.23
52    580622.15    3435415.59
53    580655.86    3435537.74
53    580619.83    3435503.23
53    580600.84    3435495.75
53    580576.92    3435511.23
53    580577.31    3435531.17
53    580606.60    3435550.28
53    580641.02    3435560.96
53    580670.62    3435561.15
53    580655.86    3435537.74
54    580909.78    3434960.39
54    580901.90    3434954.52
54    580856.73    3434932.89
54    580853.10    3434932.76
54    580810.45    3434950.61
54    580821.38    3434978.84
54    580909.78    3434960.39
55    580756.04    3435899.89
55    580743.79    3435895.25
55    580721.87    3435918.97
55    580717.16    3435925.89
55    580722.86    3435929.41
55    580756.04    3435899.89
56    581347.48    3435084.19
56    581301.24    3435087.78
56    581303.36    3435091.65
56    581328.43    3435115.26
56    581327.14    3435129.45
56    581354.19    3435132.26
56    581347.48    3435084.19
57    580516.40    3435370.74
57    580558.02    3435330.45
57    580544.07    3435318.67
57    580512.43    3435315.34
57    580511.72    3435315.94
57    580506.82    3435376.13
57    580516.40    3435370.74
58    580327.46    3434570.50
58    580325.44    3434565.55
58    580245.46    3434555.42
58    580161.62    3434554.38
58    580097.82    3434553.58
58    580092.63    3434560.54
58    580112.04    3434559.71
58    580142.30    3434561.64
58    580242.72    3434565.81
58    580324.88    3434576.14
58    580327.46    3434570.50
59    580327.47    3434540.28
59    580325.44    3434565.55
59    580327.46    3434570.50
59    580377.45    3434576.84
59    580413.90    3434571.54
59    580413.40    3434547.10
59    580392.66    3434545.45
59    580327.47    3434540.28
60    580803.80    3435200.99
60    580802.88    3435181.33
60    580734.25    3435155.09
60    580727.43    3435158.32
60    580692.81    3435188.61
60    580693.58    3435195.88
60    580696.99    3435200.75
60    580705.72    3435201.10
60    580717.86    3435200.62
60    580730.73    3435201.13
60    580783.34    3435201.44
60    580803.80    3435200.99
61    581009.42    3435310.27
61    580981.13    3435269.01
61    580973.82    3435356.56
61    580985.23    3435361.04
61    580991.89    3435360.06
61    581004.30    3435362.68
61    581006.36    3435364.12
61    581009.42    3435310.27
62    580611.90    3435324.31
62    580611.08    3435323.37
62    580578.47    3435321.63
62    580563.48    3435330.73
62    580602.65    3435371.70
62    580608.22    3435374.76
62    580611.90    3435324.31
63    580906.23    3435018.15
63    580932.20    3434996.20
63    580929.69    3434981.28
63    580925.67    3434968.49
63    580909.78    3434960.39
63    580821.38    3434978.84
63    580821.22    3434978.95
63    580824.78    3435008.93
63    580881.06    3435030.97
63    580906.23    3435018.15
64    580339.86    3435285.32
64    580340.64    3435282.18
64    580349.49    3435243.59
64    580301.71    3435267.75
64    580296.79    3435286.74
64    580311.53    3435295.94
64    580339.86    3435285.32
65    580797.01    3435263.19
65    580801.70    3435254.30
65    580799.49    3435251.21
65    580764.24    3435248.03
65    580789.48    3435264.83
65    580797.01    3435263.19
66    581347.48    3435084.19
66    581347.55    3435084.15
66    581347.44    3435054.78
66    581345.18    3435054.22
66    581276.16    3435064.01
66    581278.21    3435067.03
66    581301.24    3435087.78
66    581347.48    3435084.19
67    580957.33    3434810.16
67    580946.64    3434806.42
67    580938.99    3434808.47
67    580933.39    3434814.51
67    580925.86    3434815.41
67    580956.00    3434894.66
67    580961.92    3434887.57
67    580969.24    3434845.48
67    580968.37    3434839.42
67    580957.33    3434810.16
68    580473.27    3435525.00
68    580456.91    3435504.68
68    580423.49    3435486.40
68    580399.18    3435496.70
68    580396.62    3435517.16
68    580419.29    3435540.17
68    580427.48    3435563.10
68    580444.84    3435549.83
68    580473.27    3435525.00
69    581480.85    3435024.77
69    581397.20    3434801.25
69    581383.38    3434805.56
69    581381.87    3434808.15
69    581370.90    3434835.64
69    581413.68    3434993.21
69    581442.45    3435015.71
69    581465.09    3435027.98
69    581480.85    3435024.77
70    581094.82    3435599.97
70    581080.30    3435583.38
70    581080.09    3435583.56
70    581077.68    3435585.72
70    581074.01    3435589.26
70    581064.57    3435598.85
70    581064.25    3435599.18
70    581060.11    3435603.39
70    581055.07    3435608.59
70    581054.88    3435608.78
70    581054.36    3435609.34
70    581052.07    3435611.85
70    581068.21    3435624.60
70    581071.01    3435626.01
70    581094.82    3435599.97
71    580669.20    3435674.22
71    580683.61    3435672.33
71    580681.13    3435652.62
71    580680.87    3435569.99
71    580640.75    3435610.18
71    580641.00    3435679.31
71    580669.20    3435674.22
72    581419.90    3435399.82
72    581432.47    3435311.33
72    581406.80    3435322.32
72    581401.77    3435325.38
72    581396.58    3435322.47
72    581387.12    3435395.59
72    581418.84    3435400.59
72    581419.90    3435399.82
73    580964.01    3435473.86
73    580973.82    3435356.56
73    580966.08    3435359.60
73    580958.43    3435354.99
73    580951.43    3435352.82
73    580946.94    3435350.11
73    580940.77    3435349.29
73    580930.65    3435494.78
73    580932.93    3435497.73
73    580937.72    3435496.50
73    580936.39    3435493.32
73    580937.51    3435492.42
73    580939.31    3435486.12
73    580944.64    3435483.88
73    580959.62    3435471.90
73    580963.19    3435473.56
73    580964.01    3435473.86
74    581085.31    3435316.42
74    581062.68    3435317.87
74    581058.78    3435319.02
74    581055.20    3435338.09
74    581073.57    3435346.10
74    581085.31    3435316.42
75    580841.13    3435343.07
75    580847.17    3435285.65
75    580821.13    3435303.19
75    580804.93    3435336.17
75    580824.34    3435357.69
75    580841.13    3435343.07
76    581401.48    3435116.23
76    581362.28    3435128.75
76    581354.19    3435132.26
76    581355.30    3435148.09
76    581396.41    3435176.66
76    581401.48    3435116.23
77    580979.25    3435883.66
77    580966.41    3435869.73
77    580964.59    3435871.44
77    580964.25    3435871.75
77    580963.91    3435872.07
77    580960.74    3435874.83
77    580956.78    3435878.09
77    580951.98    3435881.82
77    580947.09    3435885.45
77    580945.95    3435886.27
77    580945.36    3435886.69
77    580940.60    3435889.97
77    580938.32    3435891.46
77    580946.24    3435906.21
77    580946.88    3435906.97
77    580979.25    3435883.66
78    580566.62    3435590.75
78    580562.50    3435585.90
78    580534.21    3435588.41
78    580528.00    3435592.79
78    580523.78    3435604.76
78    580558.37    3435606.17
78    580566.62    3435590.75
79    580296.79    3435286.74
79    580301.71    3435267.75
79    580286.84    3435250.52
79    580269.50    3435255.62
79    580280.93    3435290.64
79    580296.79    3435286.74
80    580676.63    3435327.77
80    580683.83    3435244.95
80    580672.47    3435246.57
80    580671.32    3435246.46
80    580651.08    3435245.53
80    580644.09    3435326.00
80    580645.00    3435327.06
80    580675.50    3435328.75
80    580676.63    3435327.77
81    581055.20    3435338.09
81    581058.78    3435319.02
81    581046.21    3435318.85
81    581046.43    3435342.30
81    581055.20    3435338.09
82    580344.60    3434952.91
82    580302.29    3434910.91
82    580291.55    3434905.76
82    580285.74    3434918.71
82    580279.22    3434933.26
82    580281.84    3434957.64
82    580352.37    3434966.26
82    580344.60    3434952.91
83    580350.19    3435406.26
83    580346.04    3435383.24
83    580338.37    3435378.67
83    580305.33    3435392.96
83    580306.03    3435395.26
83    580314.27    3435397.13
83    580316.34    3435415.18
83    580319.42    3435419.11
83    580350.19    3435406.26
84    580797.30    3435283.92
84    580797.82    3435281.62
84    580788.76    3435278.31
84    580759.15    3435289.45
84    580768.48    3435297.89
84    580782.88    3435299.76
84    580797.30    3435283.92
85    580795.30    3435866.18
85    580790.67    3435850.09
85    580788.34    3435843.05
85    580780.77    3435843.88
85    580746.80    3435844.09
85    580748.20    3435852.30
85    580749.03    3435854.34
85    580754.44    3435863.86
85    580763.33    3435869.97
85    580773.10    3435874.80
85    580790.94    3435875.59
85    580795.30    3435866.18
86    580874.34    3435260.82
86    580801.70    3435254.30
86    580797.01    3435263.19
86    580808.75    3435277.60
86    580849.96    3435281.38
86    580874.34    3435260.82
87    580622.15    3435415.59
87    580601.59    3435432.23
87    580594.15    3435443.29
87    580586.77    3435461.14
87    580591.83    3435487.02
87    580600.84    3435495.75
87    580619.83    3435503.23
87    580622.15    3435415.59
88    580799.23    3434923.20
88    580809.20    3434913.44
88    580786.62    3434855.12
88    580776.28    3434911.02
88    580782.17    3434929.60
88    580799.23    3434923.20
89    580566.50    3435085.14
89    580569.43    3435054.73
89    580540.99    3435032.20
89    580534.90    3435107.19
89    580566.50    3435085.14
90    581046.43    3435342.30
90    581046.21    3435318.85
90    581045.37    3435318.55
90    581023.42    3435317.38
90    581039.34    3435352.19
90    581046.43    3435342.30
91    581341.41    3435025.03
91    581344.96    3435022.63
91    581332.87    3434993.35
91    581272.51    3435009.69
91    581267.35    3435014.39
91    581249.93    3435040.58
91    581251.64    3435041.69
91    581341.41    3435025.03
92    580563.80    3435550.94
92    580561.97    3435531.53
92    580515.71    3435532.14
92    580536.54    3435546.94
92    580546.70    3435551.92
92    580561.69    3435552.69
92    580563.80    3435550.94
93    580795.60    3435509.65
93    580790.37    3435502.14
93    580744.69    3435503.29
93    580729.06    3435521.35
93    580790.19    3435522.38
93    580795.60    3435509.65
94    580485.71    3434989.58
94    580508.45    3434993.11
94    580511.56    3434992.87
94    580515.99    3434989.09
94    580523.77    3434892.12
94    580523.48    3434892.04
94    580519.69    3434890.93
94    580517.21    3434890.06
94    580516.24    3434889.67
94    580515.99    3434889.56
94    580515.77    3434889.47
94    580513.82    3434888.51
94    580511.51    3434887.19
94    580509.27    3434885.74
94    580507.53    3434884.45
94    580506.28    3434883.35
94    580505.94    3434883.01
94    580505.84    3434882.90
94    580504.86    3434881.78
94    580503.71    3434880.21
94    580502.50    3434878.31
94    580501.69    3434876.86
94    580501.59    3434876.68
94    580500.42    3434874.30
94    580500.00    3434873.33
94    580499.30    3434871.68
94    580498.49    3434869.40
94    580498.15    3434868.11
94    580485.71    3434989.58
95    580723.79    3435748.45
95    580728.57    3435741.64
95    580728.49    3435677.72
95    580726.85    3435675.16
95    580698.79    3435678.86
95    580699.19    3435764.65
95    580706.24    3435766.04
95    580723.79    3435748.45
96    580428.54    3435765.08
96    580501.09    3435733.21
96    580498.38    3435717.91
96    580494.80    3435710.35
96    580490.82    3435704.99
96    580399.62    3435744.73
96    580401.08    3435759.60
96    580409.93    3435757.02
96    580413.34    3435757.52
96    580419.54    3435756.60
96    580425.61    3435761.29
96    580428.54    3435765.08
97    580582.20    3435663.75
97    580562.82    3435663.75
97    580562.92    3435677.34
97    580582.34    3435677.90
97    580582.20    3435663.75
98    580534.21    3435588.41
98    580543.95    3435576.80
98    580536.54    3435546.94
98    580515.71    3435532.14
98    580511.72    3435530.65
98    580528.00    3435592.79
98    580534.21    3435588.41
99    580577.38    3435233.33
99    580568.82    3435234.52
99    580567.07    3435256.29
99    580574.29    3435267.66
99    580608.07    3435270.57
99    580616.00    3435266.98
99    580629.61    3435243.32
99    580630.03    3435238.12
99    580620.23    3435236.93
99    580614.21    3435240.32
99    580589.81    3435238.36
99    580577.38    3435233.33
100    581370.90    3434835.64
100    581356.88    3434859.55
100    581352.96    3434872.67
100    581377.27    3434975.84
100    581413.68    3434993.21
100    581370.90    3434835.64
101    580376.21    3435308.88
101    580348.78    3435299.86
101    580347.04    3435328.12
101    580365.91    3435342.72
101    580373.36    3435343.17
101    580376.21    3435308.88
102    581025.26    3435150.24
102    581049.88    3435124.48
102    581055.51    3435097.91
102    581024.46    3435068.12
102    581022.14    3435067.26
102    581014.87    3435154.79
102    581025.26    3435150.24
103    580782.73    3435592.42
103    580790.00    3435587.07
103    580794.56    3435567.73
103    580790.23    3435562.18
103    580682.90    3435565.34
103    580680.56    3435567.75
103    580680.87    3435569.99
103    580712.62    3435594.04
103    580782.73    3435592.42
104    580411.04    3435420.80
104    580361.30    3435412.33
104    580358.26    3435412.75
104    580362.16    3435433.66
104    580369.83    3435438.18
104    580411.04    3435420.80
105    581105.47    3435612.24
105    581098.74    3435604.36
105    581097.97    3435603.54
105    581074.79    3435628.86
105    581085.97    3435637.76
105    581087.00    3435635.97
105    581088.23    3435633.58
105    581088.46    3435633.09
105    581088.52    3435632.95
105    581089.77    3435629.90
105    581090.82    3435627.43
105    581091.37    3435626.37
105    581091.44    3435626.24
105    581091.50    3435626.14
105    581092.35    3435624.86
105    581093.53    3435623.36
105    581094.82    3435621.96
105    581095.16    3435621.63
105    581095.28    3435621.51
105    581096.77    3435620.23
105    581100.89    3435616.96
105    581101.38    3435616.53
105    581101.50    3435616.42
105    581101.64    3435616.29
105    581103.11    3435614.81
105    581105.47    3435612.24
106    580576.80    3435590.09
106    580566.62    3435590.75
106    580558.37    3435606.17
106    580561.25    3435608.43
106    580576.93    3435608.43
106    580576.80    3435590.09
107    580633.17    3435403.63
107    580620.01    3435391.23
107    580562.16    3435391.81
107    580562.69    3435411.28
107    580623.80    3435413.13
107    580633.17    3435403.63
108    581212.69    3435040.50
108    581187.50    3434876.22
108    581173.62    3434866.98
108    581162.37    3434869.57
108    581176.97    3435043.27
108    581212.69    3435040.50
109    580788.13    3435700.96
109    580796.63    3435684.63
109    580791.74    3435676.58
109    580774.41    3435677.11
109    580774.35    3435677.18
109    580773.85    3435701.62
109    580788.13    3435700.96
110    580982.94    3435182.26
110    581003.39    3435166.36
110    581014.87    3435154.79
110    581022.14    3435067.26
110    581003.13    3435048.24
110    580984.57    3435038.18
110    580972.70    3435188.50
110    580982.94    3435182.26
111    581021.78    3435816.21
111    581021.57    3435816.09
111    581004.95    3435810.95
111    581003.97    3435813.73
111    581001.99    3435818.79
111    581000.00    3435823.48
111    580999.87    3435823.79
111    580997.84    3435828.17
111    580996.21    3435831.39
111    580995.64    3435832.45
111    580995.38    3435832.93
111    580993.43    3435836.25
111    580991.06    3435839.97
111    580989.14    3435842.80
111    581003.96    3435852.26
111    581005.54    3435852.86
111    581021.78    3435816.21
112    581008.42    3434887.48
112    580999.62    3434872.91
112    580961.92    3434887.57
112    580956.00    3434894.66
112    580947.92    3434919.95
112    581009.28    3434896.01
112    581008.42    3434887.48
113    580736.66    3435831.05
113    580734.09    3435825.30
113    580731.04    3435820.29
113    580692.70    3435850.75
113    580688.56    3435860.70
113    580707.71    3435869.10
113    580736.66    3435831.05
114    581443.42    3435053.02
114    581414.34    3435079.06
114    581401.48    3435116.23
114    581396.41    3435176.66
114    581398.22    3435180.59
114    581429.26    3435217.00
114    581431.94    3435186.04
114    581443.42    3435053.02
115    580562.71    3435330.73
115    580567.06    3435288.89
115    580566.19    3435288.46
115    580558.72    3435288.00
115    580558.02    3435288.09
115    580560.95    3435330.54
115    580562.63    3435330.74
115    580562.71    3435330.73
116    580787.97    3435334.23
116    580789.91    3435302.42
116    580782.88    3435299.76
116    580768.48    3435297.89
116    580774.33    3435319.50
116    580779.03    3435335.36
116    580787.97    3435334.23
117    580317.49    3434629.62
117    580320.15    3434600.81
117    580231.06    3434592.70
117    580207.40    3434599.54
117    580208.67    3434617.13
117    580316.63    3434630.43
117    580317.49    3434629.62
118    580908.45    3435341.99
118    580899.33    3435460.13
118    580910.23    3435474.00
118    580924.79    3435489.46
118    580930.65    3435494.78
118    580940.77    3435349.29
118    580926.01    3435346.79
118    580908.45    3435341.99
119    580758.73    3435897.89
119    580754.36    3435865.26
119    580743.79    3435895.25
119    580756.04    3435899.89
119    580758.73    3435897.89
120    580808.75    3435277.60
120    580797.01    3435263.19
120    580789.48    3435264.83
120    580788.76    3435278.31
120    580797.82    3435281.62
120    580808.75    3435277.60
121    580366.42    3434635.21
121    580317.49    3434629.62
121    580316.63    3434630.43
121    580313.91    3434659.23
121    580368.80    3434666.04
121    580370.98    3434650.53
121    580366.42    3434635.21
122    580561.65    3435391.38
122    580562.57    3435372.00
122    580562.08    3435371.58
122    580516.40    3435370.74
122    580506.82    3435376.13
122    580492.67    3435392.85
122    580561.65    3435391.38
123    581429.26    3435217.00
123    581398.22    3435180.59
123    581350.65    3435180.31
123    581346.71    3435216.74
123    581360.15    3435220.10
123    581363.67    3435221.83
123    581364.45    3435221.82
123    581432.89    3435225.06
123    581429.26    3435217.00
124    580278.93    3435220.07
124    580283.11    3435213.43
124    580274.67    3435188.81
124    580252.30    3435192.98
124    580253.77    3435197.55
124    580257.61    3435200.86
124    580261.66    3435213.00
124    580262.71    3435224.38
124    580278.93    3435220.07
125    581039.34    3435352.19
125    581023.42    3435317.38
125    581009.42    3435310.27
125    581006.36    3435364.12
125    581023.39    3435367.87
125    581033.16    3435366.03
125    581039.24    3435367.20
125    581039.34    3435352.19
126    580295.84    3434808.01
126    580298.47    3434778.99
126    580206.82    3434768.16
126    580169.16    3434765.24
126    580173.57    3434772.99
126    580170.76    3434776.02
126    580160.91    3434778.37
126    580156.13    3434793.45
126    580193.31    3434796.43
126    580294.91    3434808.86
126    580295.84    3434808.01
127    580842.58    3435926.56
127    580844.59    3435916.48
127    580832.36    3435920.63
127    580830.28    3435928.95
127    580835.85    3435931.36
127    580838.29    3435932.28
127    580840.22    3435932.87
127    580840.62    3435932.96
127    580842.58    3435926.56
128    581030.76    3434943.18
128    581015.97    3434920.37
128    580932.79    3434952.03
128    580925.67    3434968.49
128    580929.69    3434981.28
128    581030.76    3434943.18
129    581356.88    3434859.55
129    581370.90    3434835.64
129    581381.87    3434808.15
129    581209.51    3434885.66
129    581222.84    3434895.94
129    581248.88    3434907.73
129    581356.88    3434859.55
130    581201.06    3435373.14
130    581197.32    3435404.06
130    581199.62    3435404.47
130    581203.61    3435405.03
130    581206.40    3435405.26
130    581208.78    3435405.29
130    581209.18    3435405.28
130    581209.28    3435405.27
130    581210.08    3435405.21
130    581212.07    3435404.93
130    581214.07    3435404.48
130    581214.17    3435404.45
130    581215.23    3435404.13
130    581216.51    3435403.63
130    581217.46    3435403.13
130    581218.17    3435402.61
130    581218.23    3435402.55
130    581218.32    3435402.47
130    581218.94    3435401.78
130    581219.54    3435400.89
130    581220.20    3435399.58
130    581221.05    3435397.39
130    581221.09    3435397.27
130    581221.11    3435397.21
130    581221.55    3435395.92
130    581221.97    3435394.39
130    581221.98    3435394.33
130    581222.00    3435394.25
130    581222.23    3435392.91
130    581222.24    3435392.79
130    581221.75    3435389.99
130    581221.66    3435389.49
130    581223.48    3435372.59
130    581201.06    3435373.14
131    580559.16    3435680.89
131    580548.46    3435676.85
131    580528.11    3435681.66
131    580491.64    3435683.63
131    580473.17    3435680.08
131    580490.82    3435704.99
131    580494.80    3435710.35
131    580498.38    3435717.91
131    580559.21    3435731.83
131    580559.16    3435680.89
132    580795.84    3435786.64
132    580792.24    3435768.87
132    580709.39    3435769.89
132    580719.75    3435786.83
132    580791.52    3435790.66
132    580795.84    3435786.64
133    581045.58    3435777.84
133    581034.23    3435777.24
133    581033.86    3435777.22
133    581026.21    3435817.59
133    581026.48    3435817.68
133    581038.93    3435821.55
133    581039.72    3435819.90
133    581039.79    3435819.77
133    581041.59    3435816.56
133    581042.09    3435815.40
133    581042.31    3435814.49
133    581042.33    3435813.71
133    581042.32    3435813.58
133    581042.29    3435813.45
133    581042.28    3435813.40
133    581041.95    3435812.41
133    581041.76    3435811.83
133    581041.74    3435811.73
133    581041.63    3435810.91
133    581041.69    3435809.80
133    581041.99    3435808.21
133    581042.22    3435807.27
133    581042.25    3435807.18
133    581042.27    3435807.09
133    581042.77    3435804.79
133    581042.92    3435803.37
133    581042.93    3435802.84
133    581042.93    3435802.75
133    581042.92    3435802.67
133    581042.74    3435801.19
133    581042.46    3435799.16
133    581042.45    3435798.85
133    581042.45    3435798.72
133    581042.55    3435797.52
133    581042.89    3435795.94
133    581043.88    3435792.37
133    581043.91    3435792.24
133    581043.94    3435792.10
133    581044.37    3435789.84
133    581044.82    3435786.28
133    581044.94    3435785.14
133    581044.96    3435784.92
133    581045.58    3435777.84
134    580561.97    3435531.53
134    580562.72    3435530.92
134    580563.12    3435511.71
134    580509.42    3435510.58
134    580499.83    3435519.79
134    580511.72    3435530.65
134    580515.71    3435532.14
134    580561.97    3435531.53
135    581320.87    3435287.23
135    581327.29    3435261.55
135    581326.04    3435261.15
135    581325.86    3435261.07
135    581325.84    3435261.07
135    581325.77    3435261.04
135    581325.02    3435260.62
135    581324.15    3435259.96
135    581322.96    3435258.84
135    581322.92    3435258.80
135    581321.61    3435257.55
135    581320.87    3435257.02
135    581320.83    3435257.00
135    581320.78    3435256.97
135    581320.71    3435256.93
135    581319.92    3435256.58
135    581318.84    3435256.29
135    581317.30    3435256.09
135    581316.89    3435256.06
135    581316.76    3435256.05
135    581314.18    3435256.01
135    581310.29    3435256.09
135    581310.15    3435256.09
135    581309.93    3435256.09
135    581305.78    3435255.96
135    581299.41    3435255.69
135    581299.19    3435255.69
135    581299.00    3435255.69
135    581295.33    3435255.75
135    581292.22    3435255.98
135    581290.04    3435256.29
135    581289.89    3435256.32
135    581287.96    3435256.79
135    581285.91    3435257.44
135    581284.06    3435258.19
135    581282.96    3435258.74
135    581282.82    3435258.81
135    581282.77    3435258.84
135    581281.60    3435259.57
135    581280.74    3435260.26
135    581280.62    3435260.37
135    581280.58    3435260.41
135    581280.50    3435260.49
135    581279.80    3435261.30
135    581279.07    3435262.40
135    581278.34    3435263.79
135    581277.69    3435265.36
135    581277.61    3435265.58
135    581277.57    3435265.69
135    581276.85    3435268.06
135    581276.07    3435270.63
135    581276.04    3435270.73
135    581275.98    3435270.90
135    581275.15    3435272.95
135    581273.13    3435277.49
135    581272.58    3435279.05
135    581272.53    3435279.22
135    581272.50    3435279.32
135    581272.03    3435281.31
135    581271.44    3435284.11
135    581271.41    3435284.20
135    581271.34    3435284.48
135    581270.70    3435286.42
135    581285.86    3435301.35
135    581320.87    3435287.23
136    580913.17    3435936.44
136    580911.09    3435927.83
136    580869.05    3435928.01
136    580869.03    3435928.40
136    580868.83    3435938.02
136    580868.96    3435938.03
136    580872.46    3435938.08
136    580875.42    3435937.93
136    580877.55    3435937.68
136    580877.86    3435937.63
136    580877.99    3435937.60
136    580880.98    3435937.08
136    580882.16    3435937.04
136    580883.04    3435937.18
136    580883.65    3435937.42
136    580883.74    3435937.47
136    580883.80    3435937.51
136    580884.41    3435937.99
136    580886.02    3435939.64
136    580886.60    3435940.05
136    580886.73    3435940.12
136    580886.79    3435940.15
136    580887.41    3435940.34
136    580888.27    3435940.41
136    580889.29    3435940.29
136    580890.03    3435940.10
136    580890.09    3435940.08
136    580891.37    3435939.58
136    580892.76    3435938.97
136    580892.92    3435938.90
136    580894.43    3435938.40
136    580896.34    3435937.95
136    580898.82    3435937.56
136    580901.52    3435937.30
136    580901.71    3435937.28
136    580909.88    3435936.92
136    580911.04    3435936.80
136    580911.23    3435936.78
136    580911.44    3435936.75
136    580913.17    3435936.44
137    580731.04    3435820.29
137    580722.22    3435792.94
137    580719.75    3435786.83
137    580709.39    3435769.89
137    580706.24    3435766.04
137    580699.19    3435764.65
137    580669.44    3435764.44
137    580664.72    3435800.19
137    580671.47    3435846.99
137    580692.70    3435850.75
137    580731.04    3435820.29
138    580439.26    3434789.57
138    580446.41    3434768.39
138    580443.11    3434765.55
138    580302.75    3434748.48
138    580301.99    3434749.17
138    580299.15    3434778.37
138    580432.96    3434793.67
138    580439.26    3434789.57
139    580602.31    3435676.53
139    580583.26    3435678.98
139    580582.63    3435743.13
139    580593.21    3435751.34
139    580603.09    3435752.25
139    580602.31    3435676.53
140    581201.06    3435373.14
140    581168.34    3435370.22
140    581166.15    3435398.15
140    581169.06    3435398.31
140    581169.55    3435398.33
140    581173.70    3435398.38
140    581175.87    3435398.53
140    581176.00    3435398.54
140    581176.27    3435398.58
140    581178.16    3435398.93
140    581180.56    3435399.56
140    581185.33    3435401.08
140    581189.06    3435402.25
140    581189.33    3435402.33
140    581189.72    3435402.43
140    581190.89    3435402.74
140    581194.84    3435403.61
140    581197.32    3435404.06
140    581201.06    3435373.14
141    580399.59    3435366.52
141    580392.94    3435363.45
141    580346.04    3435383.24
141    580350.19    3435406.26
141    580355.61    3435409.43
141    580399.59    3435366.52
142    580602.65    3435371.70
142    580563.48    3435330.73
142    580562.71    3435330.73
142    580562.63    3435330.74
142    580562.08    3435371.58
142    580562.57    3435372.00
142    580602.65    3435371.70
143    580567.07    3435256.29
143    580568.82    3435234.52
143    580563.05    3435235.31
143    580560.23    3435241.14
143    580543.24    3435232.39
143    580501.36    3435228.25
143    580516.59    3435258.49
143    580522.83    3435262.68
143    580550.24    3435265.19
143    580567.07    3435256.29
144    580789.69    3435422.59
144    580794.80    3435412.01
144    580789.58    3435402.50
144    580732.10    3435401.93
144    580725.79    3435407.73
144    580740.85    3435422.92
144    580789.69    3435422.59
145    580773.22    3435477.81
145    580770.78    3435448.00
145    580744.97    3435429.67
145    580745.72    3435501.23
145    580773.22    3435477.81
146    580790.94    3435875.59
146    580773.10    3435874.80
146    580774.14    3435877.35
146    580791.28    3435896.82
146    580792.92    3435889.29
146    580790.94    3435875.59
147    580792.40    3435747.52
147    580794.00    3435746.25
147    580793.18    3435726.22
147    580748.08    3435725.28
147    580728.57    3435741.64
147    580723.79    3435748.45
147    580792.40    3435747.52
148    581497.10    3435412.60
148    581452.71    3435404.15
148    581451.44    3435405.06
148    581444.14    3435460.64
148    581445.27    3435461.95
148    581449.35    3435463.94
148    581451.30    3435466.04
148    581463.04    3435469.76
148    581486.47    3435481.07
148    581493.57    3435488.22
148    581496.51    3435489.65
148    581496.70    3435465.42
148    581496.84    3435447.26
148    581496.87    3435442.53
148    581496.97    3435429.32
148    581497.10    3435412.60
149    580593.79    3435823.08
149    580549.22    3435801.41
149    580532.38    3435803.57
149    580527.22    3435805.04
149    580530.24    3435811.73
149    580546.98    3435813.29
149    580547.21    3435813.31
149    580547.08    3435813.53
149    580549.46    3435813.69
149    580553.19    3435813.94
149    580559.47    3435819.46
149    580567.64    3435821.21
149    580575.19    3435827.71
149    580590.12    3435833.85
149    580593.30    3435825.91
149    580593.79    3435823.08
150    580349.49    3435243.59
150    580362.66    3435223.29
150    580361.56    3435219.82
150    580292.62    3435239.28
150    580286.84    3435250.52
150    580301.71    3435267.75
150    580349.49    3435243.59
151    580594.43    3435074.48
151    580586.34    3435052.22
151    580569.43    3435054.73
151    580566.50    3435085.14
151    580589.53    3435088.88
151    580593.48    3435081.61
151    580594.43    3435074.48
152    580983.41    3435887.77
152    580981.96    3435886.15
152    580980.42    3435884.49
152    580979.25    3435883.66
152    580946.88    3435906.97
152    580948.66    3435910.28
152    580983.41    3435887.77
153    580664.72    3435800.19
153    580669.44    3435764.44
153    580668.97    3435764.29
153    580650.17    3435762.01
153    580622.79    3435827.48
153    580644.77    3435848.68
153    580664.72    3435800.19
154    581428.35    3434786.15
154    581320.17    3434542.51
154    581307.43    3434549.77
154    581295.59    3434560.39
154    581402.60    3434797.91
154    581428.35    3434786.15
155    580336.10    3434462.33
155    580280.81    3434455.32
155    580189.22    3434447.62
155    580186.83    3434457.83
155    580190.88    3434468.36
155    580193.36    3434477.04
155    580247.69    3434481.11
155    580334.09    3434488.13
155    580336.10    3434462.33
156    580498.75    3435617.68
156    580473.27    3435525.00
156    580444.84    3435549.83
156    580427.48    3435563.10
156    580434.01    3435582.80
156    580462.69    3435619.40
156    580469.32    3435622.81
156    580498.75    3435617.68
157    580989.10    3435893.78
157    580983.41    3435887.77
157    580948.66    3435910.28
157    580949.55    3435912.06
157    580954.86    3435922.09
157    580956.92    3435920.97
157    580960.56    3435919.01
157    580960.76    3435918.90
157    580960.99    3435918.77
157    580964.69    3435916.60
157    580969.24    3435913.75
157    580972.14    3435911.81
157    580972.35    3435911.66
157    580975.19    3435909.58
157    580977.95    3435907.38
157    580980.01    3435905.56
157    580981.42    3435904.14
157    580981.75    3435903.77
157    580981.91    3435903.59
157    580983.13    3435902.05
157    580984.96    3435899.42
157    580987.35    3435895.95
157    580988.56    3435894.39
157    580988.88    3435894.01
157    580989.05    3435893.83
157    580989.10    3435893.78
158    580875.82    3435845.86
158    580887.97    3435832.68
158    580889.48    3435830.02
158    580795.51    3435829.21
158    580788.34    3435843.05
158    580790.67    3435850.09
158    580875.82    3435845.86
159    580606.11    3435636.21
159    580565.48    3435636.54
159    580559.53    3435651.28
159    580586.89    3435652.99
159    580606.11    3435636.21
160    580862.18    3435865.51
160    580875.82    3435845.86
160    580790.67    3435850.09
160    580795.30    3435866.18
160    580862.18    3435865.51
161    580356.78    3435174.54
161    580349.87    3435171.54
161    580275.27    3435188.15
161    580274.67    3435188.81
161    580283.11    3435213.43
161    580369.35    3435191.55
161    580365.96    3435185.56
161    580362.66    3435182.82
161    580356.78    3435174.54
162    580286.84    3435250.52
162    580292.62    3435239.28
162    580278.93    3435220.07
162    580262.71    3435224.38
162    580263.53    3435233.39
162    580267.75    3435250.12
162    580269.50    3435255.62
162    580286.84    3435250.52
163    580589.34    3435023.19
163    580591.41    3434993.39
163    580517.54    3434988.21
163    580515.99    3434989.09
163    580511.56    3434992.87
163    580534.71    3435018.37
163    580586.72    3435023.78
163    580589.34    3435023.19
164    581381.87    3434808.15
164    581383.38    3434805.56
164    581366.64    3434797.48
164    581335.50    3434787.90
164    581177.78    3434858.98
164    581173.62    3434866.98
164    581187.50    3434876.22
164    581209.51    3434885.66
164    581381.87    3434808.15
165    581297.07    3435176.38
165    581303.36    3435091.65
165    581301.24    3435087.78
165    581278.21    3435067.03
165    581268.00    3435185.30
165    581286.57    3435185.90
165    581297.07    3435176.38
166    580406.49    3434816.09
166    580432.96    3434793.67
166    580299.15    3434778.37
166    580298.47    3434778.99
166    580295.84    3434808.01
166    580354.79    3434815.35
166    580380.48    3434818.54
166    580406.49    3434816.09
167    581176.97    3435043.27
167    581162.37    3434869.57
167    581160.64    3434869.69
167    581130.90    3434877.17
167    581127.44    3434878.62
167    581151.71    3435036.02
167    581151.76    3435036.06
167    581151.95    3435036.18
167    581154.89    3435038.12
167    581157.75    3435040.17
167    581159.87    3435041.84
167    581176.54    3435043.38
167    581176.97    3435043.27
168    581168.34    3435370.22
168    581135.24    3435367.76
168    581133.31    3435393.48
168    581134.13    3435393.60
168    581134.45    3435393.66
168    581139.42    3435394.65
168    581144.61    3435395.67
168    581144.82    3435395.71
168    581145.31    3435395.79
168    581150.23    3435396.51
168    581158.63    3435397.49
168    581165.07    3435398.09
168    581166.15    3435398.15
168    581168.34    3435370.22
169    581131.35    3435184.68
169    581139.55    3435186.02
169    581155.58    3435124.69
169    581156.34    3435111.38
169    581134.62    3435109.35
169    581131.35    3435184.68
170    581026.48    3435817.68
170    581026.21    3435817.59
170    581021.78    3435816.21
170    581005.54    3435852.86
170    581009.29    3435855.23
170    581026.48    3435817.68
171    580568.20    3435270.33
171    580562.39    3435269.84
171    580558.72    3435288.00
171    580566.19    3435288.46
171    580568.20    3435270.33
172    581032.03    3435454.75
172    581039.24    3435367.20
172    581033.16    3435366.03
172    581023.39    3435367.87
172    581006.36    3435364.12
172    580997.40    3435461.60
172    580998.78    3435460.78
172    581000.00    3435461.13
172    581004.61    3435462.95
172    581009.44    3435465.02
172    581009.71    3435464.73
172    581010.54    3435463.88
172    581012.16    3435462.69
172    581013.54    3435462.01
172    581027.63    3435458.40
172    581029.11    3435457.55
172    581032.03    3435454.75
173    580795.02    3435103.39
173    580797.39    3435072.98
173    580770.00    3435046.07
173    580763.41    3435129.34
173    580795.02    3435103.39
174    580347.17    3435298.56
174    580339.86    3435285.32
174    580311.53    3435295.94
174    580311.84    3435306.61
174    580315.19    3435323.16
174    580322.30    3435327.24
174    580347.17    3435298.56
175    580637.32    3435033.57
175    580638.65    3435031.50
175    580589.34    3435023.19
175    580586.72    3435023.78
175    580586.34    3435052.22
175    580590.74    3435064.31
175    580637.32    3435033.57
176    580810.45    3434950.61
176    580853.10    3434932.76
176    580809.20    3434913.44
176    580799.23    3434923.20
176    580809.09    3434950.69
176    580810.45    3434950.61
177    581345.53    3435256.75
177    581329.28    3435255.20
177    581328.69    3435257.26
177    581327.38    3435261.58
177    581327.33    3435261.56
177    581327.29    3435261.55
177    581320.87    3435287.23
177    581331.40    3435290.88
177    581345.53    3435256.75
178    581135.24    3435367.76
178    581102.19    3435366.03
178    581100.32    3435389.05
178    581101.68    3435389.16
178    581101.93    3435389.19
178    581102.26    3435389.22
178    581104.25    3435389.45
178    581118.03    3435391.38
178    581118.36    3435391.43
178    581118.68    3435391.47
178    581129.31    3435392.86
178    581133.31    3435393.48
178    581135.24    3435367.76
179    580899.33    3435460.13
179    580876.27    3435439.38
179    580801.77    3435441.23
179    580791.54    3435448.02
179    580793.91    3435470.69
179    580910.23    3435474.00
179    580899.33    3435460.13
180    580528.11    3435681.66
180    580528.05    3435645.44
180    580513.99    3435626.70
180    580511.34    3435624.42
180    580491.64    3435683.63
180    580528.11    3435681.66
181    580381.67    3435290.32
181    580414.85    3435289.87
181    580421.04    3435216.30
181    580409.18    3435212.73
181    580405.32    3435217.20
181    580396.70    3435224.62
181    580388.73    3435228.18
181    580386.70    3435230.54
181    580381.67    3435290.32
182    580508.78    3435762.42
182    580501.09    3435733.21
182    580428.54    3435765.08
182    580437.07    3435770.18
182    580439.51    3435781.78
182    580447.87    3435783.54
182    580449.63    3435787.85
182    580508.78    3435762.42
183    581047.27    3435304.45
183    581026.67    3435266.56
183    580970.09    3435239.91
183    580981.13    3435269.01
183    581009.42    3435310.27
183    581023.42    3435317.38
183    581045.37    3435318.55
183    581047.27    3435304.45
185    580340.68    3434421.30
185    580338.86    3434447.64
185    580340.45    3434451.40
185    580367.78    3434454.92
185    580368.77    3434440.09
185    580379.04    3434435.37
185    580389.97    3434427.44
185    580340.68    3434421.30
186    580609.81    3434934.45
186    580615.46    3434863.35
186    580610.77    3434866.72
186    580606.66    3434869.62
186    580606.38    3434869.81
186    580605.93    3434870.11
186    580601.79    3434872.75
186    580591.97    3434878.75
186    580585.37    3434882.66
186    580583.38    3434883.77
186    580582.11    3434884.42
186    580577.73    3434936.51
186    580587.13    3434938.04
186    580596.55    3434939.28
186    580609.81    3434934.45
187    580794.56    3435567.73
187    580790.00    3435587.07
187    580915.96    3435591.02
187    580923.16    3435567.10
187    580794.56    3435567.73
188    580589.53    3435088.88
188    580566.50    3435085.14
188    580534.90    3435107.19
188    580531.64    3435112.90
188    580618.93    3435121.22
188    580595.67    3435091.70
188    580589.53    3435088.88
189    580587.13    3434938.04
189    580577.73    3434936.51
189    580547.32    3434960.04
189    580545.62    3434962.96
189    580588.79    3434964.80
189    580587.13    3434938.04
190    581291.91    3435422.89
190    581289.91    3435421.94
190    581288.89    3435421.53
190    581268.93    3435449.39
190    581271.60    3435451.71
190    581274.57    3435453.37
190    581291.91    3435422.89
191    580345.84    3434997.65
191    580366.13    3434980.14
191    580352.37    3434966.26
191    580281.84    3434957.64
191    580275.91    3434963.88
191    580280.18    3435009.10
191    580294.12    3435017.21
191    580345.84    3434997.65
192    580562.69    3435411.28
192    580562.16    3435391.81
192    580561.65    3435391.38
192    580492.67    3435392.85
192    580486.18    3435398.34
192    580500.40    3435410.41
192    580562.36    3435411.55
192    580562.69    3435411.28
193    580559.53    3435651.28
193    580565.48    3435636.54
193    580561.42    3435629.16
193    580513.99    3435626.70
193    580528.05    3435645.44
193    580548.42    3435653.09
193    580557.14    3435653.21
193    580559.53    3435651.28
194    581408.12    3435485.78
194    581418.84    3435400.59
194    581387.12    3435395.59
194    581386.28    3435396.18
194    581375.02    3435478.98
194    581389.63    3435480.53
194    581397.10    3435484.48
194    581406.31    3435484.11
194    581408.12    3435485.78
195    580876.54    3435343.10
195    580841.13    3435343.07
195    580824.34    3435357.69
195    580824.17    3435359.60
195    580837.38    3435392.90
195    580851.20    3435411.40
195    580868.51    3435427.40
195    580876.54    3435343.10
196    581029.29    3435777.26
196    581011.86    3435776.19
196    581011.89    3435777.97
196    581011.81    3435781.07
196    581011.59    3435783.33
196    581011.56    3435783.53
196    581011.56    3435783.60
196    581011.55    3435783.66
196    581011.00    3435786.71
196    581010.99    3435786.78
196    581010.92    3435787.14
196    581009.11    3435796.08
196    581007.95    3435801.06
196    581007.00    3435804.58
196    581006.84    3435805.16
196    581005.58    3435809.18
196    581004.95    3435810.95
196    581021.57    3435816.09
196    581029.29    3435777.26
197    580287.29    3434903.39
197    580321.26    3434898.48
197    580348.52    3434899.91
197    580348.63    3434899.92
197    580351.99    3434855.67
197    580354.79    3434815.35
197    580295.84    3434808.01
197    580294.91    3434808.86
197    580292.14    3434836.87
197    580291.65    3434872.46
197    580286.66    3434884.03
197    580287.29    3434903.39
198    580860.58    3435624.66
198    580791.68    3435625.32
198    580792.80    3435645.14
198    580886.49    3435645.49
198    580858.58    3435637.98
198    580860.58    3435624.66
199    580311.84    3435306.61
199    580311.53    3435295.94
199    580296.79    3435286.74
199    580280.93    3435290.64
199    580281.14    3435291.83
199    580290.27    3435300.66
199    580289.17    3435314.13
199    580311.84    3435306.61
200    581366.19    3435323.75
200    581367.37    3435317.28
200    581366.00    3435312.95
200    581358.37    3435273.98
200    581353.00    3435268.18
200    581352.13    3435263.70
200    581352.07    3435263.69
200    581352.70    3435261.86
200    581353.94    3435257.55
200    581345.53    3435256.75
200    581331.40    3435290.88
200    581324.21    3435313.71
200    581362.43    3435327.06
200    581366.19    3435323.75
201    581244.16    3434747.75
201    581199.33    3434646.06
201    581188.40    3434654.19
201    581171.49    3434659.14
201    581215.57    3434761.03
201    581244.16    3434747.75
202    580365.91    3435342.72
202    580347.04    3435328.12
202    580323.13    3435328.33
202    580326.22    3435351.15
202    580334.63    3435356.35
202    580365.91    3435342.72
203    580564.14    3435623.37
203    580561.25    3435608.43
203    580558.37    3435606.17
203    580523.78    3435604.76
203    580509.25    3435620.53
203    580511.34    3435624.42
203    580513.99    3435626.70
203    580561.42    3435629.16
203    580564.14    3435623.37
204    580302.75    3434748.48
204    580305.70    3434719.40
204    580240.77    3434711.81
204    580239.46    3434719.50
204    580235.15    3434721.26
204    580225.29    3434729.62
204    580207.28    3434733.42
204    580204.25    3434737.17
204    580301.99    3434749.17
204    580302.75    3434748.48
205    580490.82    3435704.99
205    580473.17    3435680.08
205    580393.53    3435714.07
205    580395.00    3435731.20
205    580399.62    3435744.73
205    580490.82    3435704.99
206    581175.64    3435555.89
206    581199.78    3435536.83
206    581198.08    3435534.43
206    581197.52    3435534.02
206    581170.47    3435551.33
206    581172.35    3435554.26
206    581175.23    3435555.75
206    581175.53    3435555.73
206    581175.64    3435555.89
207    581325.21    3435150.85
207    581328.43    3435115.26
207    581303.36    3435091.65
207    581297.07    3435176.38
207    581325.21    3435150.85
208    580883.59    3435764.66
208    580883.18    3435763.24
208    580881.00    3435757.84
208    580879.12    3435754.57
208    580881.06    3435752.35
208    580884.88    3435748.47
208    580886.17    3435746.27
208    580794.00    3435746.25
208    580792.40    3435747.52
208    580794.98    3435766.47
208    580883.59    3435764.66
209    581199.91    3434804.90
209    581200.16    3434798.04
209    581138.51    3434650.94
209    581127.60    3434648.37
209    581108.58    3434653.55
209    581183.22    3434838.63
209    581199.91    3434804.90
210    580997.40    3435461.60
210    581006.36    3435364.12
210    581004.30    3435362.68
210    580991.89    3435360.06
210    580985.23    3435361.04
210    580973.82    3435356.56
210    580964.01    3435473.86
210    580970.10    3435476.09
210    580972.20    3435471.98
210    580976.42    3435465.87
210    580979.35    3435466.23
210    580983.75    3435466.33
210    580987.74    3435465.87
210    580991.26    3435464.62
210    580996.52    3435462.13
210    580997.40    3435461.60
211    580808.55    3435169.55
211    580799.09    3435160.02
211    580737.42    3435153.24
211    580734.25    3435155.09
211    580802.88    3435181.33
211    580808.55    3435169.55
212    580553.90    3435437.19
212    580561.52    3435431.14
212    580562.36    3435411.55
212    580500.40    3435410.41
212    580515.88    3435429.14
212    580532.37    3435437.88
212    580553.90    3435437.19
213    580327.46    3434570.50
213    580324.88    3434576.14
213    580322.99    3434581.46
213    580321.05    3434599.98
213    580355.98    3434604.24
213    580362.79    3434595.98
213    580365.00    3434582.16
213    580375.78    3434579.59
213    580377.45    3434576.84
213    580327.46    3434570.50
214    580774.33    3435319.50
214    580768.48    3435297.89
214    580759.15    3435289.45
214    580746.85    3435283.91
214    580744.09    3435320.58
214    580774.33    3435319.50
215    580670.60    3435852.37
215    580671.27    3435847.47
215    580644.23    3435851.27
215    580642.54    3435855.36
215    580665.50    3435864.71
215    580670.60    3435852.37
216    581006.06    3434813.45
216    581005.18    3434810.96
216    581004.55    3434811.20
216    581003.63    3434807.48
216    581000.34    3434800.91
216    581000.00    3434800.40
216    580997.86    3434797.21
216    580993.04    3434791.91
216    580979.93    3434816.46
216    580981.87    3434824.63
216    580989.72    3434835.78
216    580994.63    3434834.85
216    581010.66    3434826.55
216    581006.65    3434815.14
216    581006.06    3434813.45
217    580602.31    3435676.53
217    580607.37    3435671.94
217    580607.10    3435635.71
217    580606.11    3435636.21
217    580586.89    3435652.99
217    580582.20    3435663.75
217    580582.34    3435677.90
217    580583.26    3435678.98
217    580602.31    3435676.53
218    580848.13    3435137.27
218    580844.60    3435134.57
218    580762.99    3435130.06
218    580737.42    3435153.24
218    580799.09    3435160.02
218    580848.13    3435137.27
219    580917.24    3435225.68
219    580910.54    3435226.38
219    580881.66    3435256.08
219    580876.54    3435343.10
219    580886.70    3435340.24
219    580908.45    3435341.99
219    580917.24    3435225.68
220    581017.82    3435860.74
220    581009.88    3435855.63
220    580981.96    3435886.15
220    580983.41    3435887.77
220    580989.10    3435893.78
220    580989.21    3435893.65
220    580990.61    3435892.25
220    580995.01    3435888.25
220    580996.19    3435887.01
220    580997.09    3435885.87
220    580997.61    3435885.05
220    580997.66    3435884.96
220    580998.28    3435883.63
220    580999.38    3435881.01
220    580999.92    3435880.05
220    580999.98    3435879.95
220    581000.00    3435879.92
220    581000.07    3435879.82
220    581000.78    3435878.97
220    581001.72    3435878.09
220    581003.28    3435876.88
220    581005.94    3435874.91
220    581006.06    3435874.80
220    581006.19    3435874.70
220    581006.22    3435874.67
220    581007.94    3435873.21
220    581007.95    3435873.20
220    581007.99    3435873.17
220    581009.70    3435871.49
220    581009.78    3435871.41
220    581009.81    3435871.38
220    581009.88    3435871.31
220    581012.76    3435868.38
220    581013.07    3435868.03
220    581013.18    3435867.91
220    581014.51    3435866.27
220    581015.92    3435864.29
220    581016.95    3435862.63
220    581017.60    3435861.31
220    581017.65    3435861.20
220    581017.82    3435860.74
221    580798.38    3435368.64
221    580774.66    3435358.70
221    580756.41    3435381.96
221    580789.87    3435382.87
221    580798.38    3435368.64
222    581373.39    3434975.44
222    581329.75    3434948.24
222    581317.55    3434959.77
222    581339.72    3434987.61
222    581373.39    3434975.44
223    580368.80    3434666.04
223    580313.91    3434659.23
223    580312.92    3434660.17
223    580310.30    3434689.87
223    580313.85    3434704.19
223    580360.66    3434711.35
223    580359.72    3434708.24
223    580360.72    3434693.26
223    580368.71    3434686.88
223    580368.80    3434666.04
224    581103.14    3434884.03
224    581034.67    3434706.45
224    581030.53    3434715.81
224    581028.72    3434759.74
224    581079.03    3434891.60
224    581085.05    3434891.12
224    581103.14    3434884.03
225    581502.13    3434758.65
225    581454.25    3434774.69
225    581433.07    3434784.59
225    581500.72    3434941.25
225    581500.73    3434940.75
225    581500.97    3434909.24
225    581501.06    3434896.99
225    581501.08    3434894.84
225    581501.26    3434871.06
225    581501.38    3434855.29
225    581501.42    3434850.75
225    581501.47    3434843.66
225    581501.56    3434832.73
225    581501.66    3434820.05
225    581501.83    3434797.47
225    581501.89    3434789.97
225    581502.04    3434770.34
225    581502.13    3434758.65
226    580315.19    3435323.16
226    580311.84    3435306.61
226    580289.17    3435314.13
226    580289.01    3435316.34
226    580293.46    3435332.37
226    580315.19    3435323.16
227    580956.00    3434894.66
227    580925.86    3434815.41
227    580919.07    3434816.47
227    580919.46    3434826.29
227    580911.13    3434830.70
227    580902.96    3434832.64
227    580893.06    3434840.23
227    580935.50    3434942.19
227    580947.92    3434919.95
227    580956.00    3434894.66
228    580779.06    3435898.77
228    580774.14    3435877.35
228    580773.10    3435874.80
228    580763.33    3435869.97
228    580772.71    3435903.34
228    580779.06    3435898.77
229    581271.33    3434583.04
229    581246.87    3434604.77
229    581328.54    3434783.88
229    581335.50    3434787.90
229    581366.64    3434797.48
229    581271.33    3434583.04
230    581098.74    3435604.36
230    581105.47    3435612.24
230    581107.49    3435610.03
230    581107.89    3435609.63
230    581108.03    3435609.49
230    581108.16    3435609.37
230    581109.87    3435607.83
230    581112.77    3435605.47
230    581114.73    3435603.94
230    581114.87    3435603.84
230    581114.99    3435603.75
230    581120.75    3435599.54
230    581120.87    3435599.45
230    581120.91    3435599.41
230    581121.81    3435598.67
230    581122.22    3435598.18
230    581122.24    3435598.15
230    581122.27    3435598.10
230    581122.66    3435597.31
230    581123.13    3435596.34
230    581123.50    3435595.87
230    581123.74    3435595.68
230    581123.80    3435595.64
230    581123.84    3435595.61
230    581124.43    3435595.25
230    581124.52    3435595.10
230    581124.52    3435595.10
230    581124.53    3435595.05
230    581124.48    3435594.67
230    581124.42    3435594.51
230    581124.41    3435594.47
230    581124.38    3435594.39
230    581123.73    3435592.34
230    581122.07    3435585.88
230    581098.74    3435604.36
231    580388.45    3434983.68
231    580367.85    3434980.13
231    580366.13    3434980.14
231    580345.84    3434997.65
231    580336.54    3435111.97
231    580342.65    3435113.80
231    580346.00    3435121.98
231    580352.11    3435124.48
231    580368.30    3435136.48
231    580371.31    3435143.83
231    580373.89    3435145.80
231    580388.45    3434983.68
232    581062.68    3435317.87
232    581053.71    3435300.28
232    581047.27    3435304.45
232    581045.37    3435318.55
232    581046.21    3435318.85
232    581058.78    3435319.02
232    581062.68    3435317.87
233    580876.27    3435439.38
233    580868.51    3435427.40
233    580851.20    3435411.40
233    580794.80    3435412.01
233    580789.69    3435422.59
233    580801.77    3435441.23
233    580876.27    3435439.38
234    581120.34    3435582.15
234    581118.86    3435578.98
234    581116.54    3435580.51
234    581116.13    3435580.79
234    581114.44    3435577.49
234    581114.43    3435576.51
234    581113.84    3435575.24
234    581113.20    3435574.20
234    581112.54    3435573.58
234    581111.42    3435572.74
234    581109.70    3435570.19
234    581108.77    3435569.09
234    581108.35    3435568.38
234    581107.76    3435567.66
234    581107.24    3435566.86
234    581106.56    3435566.51
234    581105.83    3435566.39
234    581105.76    3435566.39
234    581105.74    3435566.39
234    581105.40    3435566.40
234    581104.58    3435566.59
234    581103.48    3435567.04
234    581103.43    3435567.06
234    581103.26    3435567.14
234    581101.66    3435568.00
234    581099.85    3435569.16
234    581096.12    3435571.85
234    581095.97    3435571.96
234    581087.70    3435577.79
234    581083.75    3435580.65
234    581081.09    3435582.73
234    581080.80    3435582.96
234    581080.44    3435583.26
234    581080.30    3435583.38
234    581094.82    3435599.97
234    581094.86    3435599.99
234    581120.34    3435582.15
235    580562.84    3435571.02
235    580563.33    3435570.60
235    580561.69    3435552.69
235    580546.70    3435551.92
235    580550.85    3435571.92
235    580562.84    3435571.02
236    580791.74    3435676.58
236    580796.26    3435666.13
236    580794.75    3435655.19
236    580793.13    3435650.69
236    580792.80    3435645.14
236    580772.52    3435639.44
236    580772.27    3435639.44
236    580774.41    3435677.11
236    580791.74    3435676.58
237    580780.77    3435843.88
237    580788.34    3435843.05
237    580795.51    3435829.21
237    580792.22    3435815.42
237    580734.09    3435825.30
237    580736.66    3435831.05
237    580746.80    3435844.09
237    580780.77    3435843.88
238    580367.78    3434454.92
238    580340.45    3434451.40
238    580336.10    3434462.33
238    580334.09    3434488.13
238    580343.13    3434497.13
238    580356.95    3434498.71
238    580366.85    3434466.56
238    580367.78    3434454.92
239    580799.49    3435251.21
239    580801.20    3435232.91
239    580793.83    3435233.37
239    580789.42    3435233.87
239    580748.67    3435235.46
239    580737.41    3435237.12
239    580764.24    3435248.03
239    580799.49    3435251.21
240    581064.91    3435212.67
240    581061.11    3435193.24
240    580982.94    3435182.26
240    580972.70    3435188.50
240    580957.62    3435203.62
240    580973.76    3435207.06
240    580982.92    3435208.02
240    580984.69    3435210.30
240    580998.28    3435220.10
240    581005.18    3435220.16
240    581008.43    3435229.86
240    581007.50    3435231.33
240    581012.28    3435234.28
240    581017.85    3435237.36
240    581022.94    3435240.02
240    581029.02    3435242.62
240    581035.23    3435244.74
240    581038.71    3435245.78
240    581040.16    3435244.29
240    581040.82    3435244.42
240    581050.74    3435246.43
240    581050.78    3435246.09
240    581059.26    3435246.85
240    581066.86    3435221.21
240    581064.91    3435212.67
241    580716.34    3435247.85
241    580712.75    3435240.78
241    580683.83    3435244.95
241    580676.63    3435327.77
241    580709.54    3435331.48
241    580716.34    3435247.85
242    580576.92    3435511.23
242    580600.84    3435495.75
242    580591.83    3435487.02
242    580562.21    3435486.41
242    580563.26    3435511.61
242    580576.92    3435511.23
243    580343.33    3434399.63
243    580340.68    3434421.30
243    580389.97    3434427.44
243    580393.05    3434425.21
243    580389.98    3434416.60
243    580387.71    3434392.33
243    580353.59    3434393.30
243    580343.33    3434399.63
244    580291.55    3434905.76
244    580287.29    3434903.39
244    580233.32    3434899.97
244    580225.43    3434899.89
244    580224.67    3434919.07
244    580227.15    3434921.75
244    580232.54    3434927.36
244    580279.22    3434933.26
244    580285.74    3434918.71
244    580291.55    3434905.76
245    580862.64    3435044.94
245    580765.39    3435035.87
245    580770.00    3435046.07
245    580797.39    3435072.98
245    580829.28    3435075.97
245    580862.64    3435044.94
246    580652.37    3434837.19
246    580642.24    3434843.04
246    580639.65    3434844.67
246    580637.86    3434845.94
246    580637.72    3434846.04
246    580633.76    3434849.20
246    580632.49    3434850.05
246    580631.45    3434850.59
246    580630.82    3434850.83
246    580630.78    3434850.85
246    580629.86    3434851.06
246    580629.45    3434851.09
246    580629.43    3434851.10
246    580629.37    3434851.10
246    580628.12    3434851.13
246    580627.73    3434851.28
246    580627.71    3434851.30
246    580627.67    3434851.33
246    580627.42    3434851.61
246    580627.18    3434852.13
246    580627.08    3434852.50
246    580627.08    3434852.51
246    580627.07    3434852.57
246    580626.85    3434854.20
246    580626.84    3434854.24
246    580626.80    3434854.39
246    580626.49    3434855.13
246    580626.04    3434855.81
246    580625.36    3434856.55
246    580624.41    3434857.35
246    580622.89    3434858.41
246    580620.48    3434859.92
246    580620.32    3434860.02
246    580620.01    3434860.21
246    580617.09    3434862.18
246    580615.46    3434863.35
246    580609.81    3434934.45
246    580641.31    3434969.44
246    580652.37    3434837.19
247    581229.09    3435520.25
247    581226.73    3435517.73
247    581200.25    3435537.42
247    581204.06    3435542.62
247    581207.71    3435539.94
247    581212.05    3435536.62
247    581214.40    3435534.69
247    581214.62    3435534.50
247    581214.75    3435534.40
247    581216.78    3435532.58
247    581217.06    3435532.31
247    581217.21    3435532.16
247    581219.20    3435530.10
247    581223.70    3435525.22
247    581224.63    3435524.28
247    581224.75    3435524.17
247    581227.09    3435522.04
247    581229.09    3435520.25
248    580593.62    3434965.15
248    580596.55    3434939.28
248    580587.13    3434938.04
248    580588.79    3434964.80
248    580593.58    3434965.16
248    580593.62    3434965.15
249    580499.83    3435519.79
249    580509.42    3435510.58
249    580515.11    3435502.22
249    580515.88    3435429.14
249    580500.40    3435410.41
249    580486.18    3435398.34
249    580485.89    3435398.35
249    580486.24    3435520.47
249    580499.83    3435519.79
250    581107.36    3434883.41
250    581103.14    3434884.03
250    581085.05    3434891.12
250    581079.03    3434891.60
250    581062.00    3434894.90
250    581065.96    3434901.52
250    581069.26    3434906.54
250    581073.89    3434913.12
250    581081.25    3434924.94
250    581084.39    3434930.00
250    581086.36    3434933.51
250    581087.62    3434936.57
250    581089.44    3434942.33
250    581093.28    3434956.23
250    581093.51    3434956.29
250    581094.37    3434956.19
250    581095.21    3434962.35
250    581094.33    3434962.66
250    581093.11    3434962.81
250    581095.87    3434978.96
250    581096.38    3434978.89
250    581096.47    3434979.36
250    581096.87    3434981.40
250    581096.87    3434981.41
250    581096.91    3434981.60
250    581098.37    3434989.05
250    581098.80    3434990.74
250    581098.85    3434990.93
250    581098.90    3434991.11
250    581099.64    3434993.29
250    581100.65    3434995.78
250    581101.81    3434998.21
250    581102.54    3434999.57
250    581102.63    3434999.74
250    581102.72    3434999.89
250    581102.80    3435000.02
250    581104.01    3435001.98
250    581105.51    3435004.14
250    581107.03    3435006.07
250    581107.72    3435006.86
250    581107.86    3435007.02
250    581109.46    3435008.67
250    581111.61    3435010.66
250    581114.17    3435012.82
250    581115.49    3435013.86
250    581115.72    3435014.04
250    581118.78    3435016.30
250    581122.88    3435019.13
250    581125.48    3435020.83
250    581107.36    3434883.41
251    580348.52    3434899.91
251    580321.26    3434898.48
251    580298.37    3434901.54
251    580287.29    3434903.39
251    580291.55    3434905.76
251    580302.29    3434910.91
251    580344.60    3434952.91
251    580348.63    3434899.92
251    580348.52    3434899.91
252    580340.68    3434421.30
252    580343.33    3434399.63
252    580318.66    3434397.70
252    580235.26    3434399.66
252    580209.09    3434416.76
252    580214.04    3434422.94
252    580213.14    3434424.07
252    580203.42    3434429.97
252    580198.75    3434431.94
252    580227.00    3434436.28
252    580261.68    3434438.03
252    580338.86    3434447.64
252    580340.68    3434421.30
253    580299.15    3434778.37
253    580301.99    3434749.17
253    580204.25    3434737.17
253    580199.01    3434743.66
253    580197.29    3434755.30
253    580206.82    3434768.16
253    580298.47    3434778.99
253    580299.15    3434778.37
254    580608.07    3435270.57
254    580574.29    3435267.66
254    580568.20    3435270.33
254    580566.19    3435288.46
254    580567.06    3435288.89
254    580586.22    3435290.14
254    580608.07    3435270.57
255    580380.44    3435305.22
255    580381.62    3435290.77
255    580340.64    3435282.18
255    580339.86    3435285.32
255    580347.17    3435298.56
255    580348.78    3435299.86
255    580376.21    3435308.88
255    580380.44    3435305.22
256    581268.00    3435185.30
256    581278.21    3435067.03
256    581276.16    3435064.01
256    581251.64    3435041.69
256    581249.93    3435040.58
256    581244.10    3435041.05
256    581233.01    3435184.18
256    581268.00    3435185.30
257    580641.65    3434970.36
257    580593.62    3434965.15
257    580593.58    3434965.16
257    580591.70    3434993.30
257    580664.41    3434999.51
257    580641.65    3434970.36
258    580321.05    3434599.98
258    580322.99    3434581.46
258    580243.14    3434572.72
258    580193.88    3434566.29
258    580137.99    3434568.32
258    580114.40    3434565.92
258    580110.84    3434564.58
258    580106.80    3434564.58
258    580107.81    3434591.49
258    580135.39    3434594.72
258    580152.02    3434600.69
258    580179.65    3434593.29
258    580184.64    3434596.00
258    580192.85    3434597.91
258    580196.99    3434600.16
258    580207.40    3434599.54
258    580231.06    3434592.70
258    580320.15    3434600.81
258    580321.05    3434599.98
259    580790.23    3435562.18
259    580794.24    3435549.33
259    580789.02    3435542.47
259    580710.67    3435538.04
259    580685.81    3435561.63
259    580682.90    3435565.34
259    580790.23    3435562.18
260    580841.17    3434797.24
260    580824.16    3434794.16
260    580801.91    3434790.77
260    580856.73    3434932.89
260    580901.90    3434954.52
260    580841.17    3434797.24
261    580869.03    3435928.40
261    580842.58    3435926.56
261    580840.62    3435932.96
261    580841.06    3435933.06
261    580841.25    3435933.10
261    580843.20    3435933.40
261    580847.58    3435933.77
261    580850.36    3435934.07
261    580850.75    3435934.13
261    580850.95    3435934.16
261    580851.20    3435934.20
261    580853.44    3435934.71
261    580857.11    3435935.78
261    580861.27    3435936.99
261    580862.98    3435937.39
261    580863.23    3435937.44
261    580863.51    3435937.49
261    580865.80    3435937.81
261    580868.83    3435938.02
261    580869.03    3435928.40
262    581396.41    3435176.66
262    581355.30    3435148.09
262    581350.65    3435180.31
262    581398.22    3435180.59
262    581396.41    3435176.66
263    581246.87    3434604.77
263    581225.47    3434624.19
263    581290.78    3434769.84
263    581328.54    3434783.88
263    581246.87    3434604.77
264    580867.46    3435042.90
264    580881.06    3435030.97
264    580824.78    3435008.93
264    580743.14    3435002.52
264    580738.15    3435006.88
264    580739.58    3435009.25
264    580765.39    3435035.87
264    580862.64    3435044.94
264    580867.46    3435042.90
265    580548.46    3435676.85
265    580548.42    3435653.09
265    580528.05    3435645.44
265    580528.11    3435681.66
265    580548.46    3435676.85
266    580851.20    3435411.40
266    580837.38    3435392.90
266    580795.15    3435392.96
266    580789.58    3435402.50
266    580794.80    3435412.01
266    580851.20    3435411.40
267    580799.73    3435301.84
267    580797.30    3435283.92
267    580782.88    3435299.76
267    580789.91    3435302.42
267    580796.62    3435302.94
267    580799.73    3435301.84
268    581162.37    3434869.57
268    581173.62    3434866.98
268    581177.78    3434858.98
268    581183.22    3434838.63
268    581108.58    3434653.55
268    581104.69    3434654.75
268    581084.75    3434674.17
268    581160.64    3434869.69
268    581162.37    3434869.57
269    580606.60    3435550.28
269    580577.31    3435531.17
269    580562.72    3435530.92
269    580561.97    3435531.53
269    580563.80    3435550.94
269    580606.60    3435550.28
270    581488.24    3435025.19
270    581480.85    3435024.77
270    581465.09    3435027.98
270    581452.26    3435040.84
270    581443.42    3435053.02
270    581429.26    3435217.00
270    581432.89    3435225.06
270    581466.65    3435226.66
270    581488.24    3435025.19
271    581222.34    3435513.35
271    581216.80    3435507.38
271    581216.74    3435507.44
271    581214.91    3435508.59
271    581213.19    3435510.27
271    581210.10    3435513.06
271    581205.87    3435516.67
271    581200.84    3435520.77
271    581197.17    3435523.60
271    581196.05    3435524.42
271    581195.67    3435524.69
271    581195.28    3435524.96
271    581192.45    3435526.85
271    581197.52    3435534.02
271    581198.08    3435534.43
271    581222.34    3435513.35
272    580906.23    3435018.15
272    580881.06    3435030.97
272    580867.46    3435042.90
272    580859.58    3435142.57
272    580889.40    3435172.36
272    580892.95    3435175.39
272    580906.23    3435018.15
273    580674.59    3435403.85
273    580675.50    3435328.75
273    580645.00    3435327.06
273    580638.73    3435403.23
273    580652.88    3435406.01
273    580674.59    3435403.85
274    580583.26    3435678.98
274    580582.34    3435677.90
274    580562.92    3435677.34
274    580559.16    3435680.89
274    580559.21    3435731.83
274    580582.63    3435743.13
274    580583.26    3435678.98
275    580945.45    3435007.86
275    580939.79    3435002.20
275    580932.20    3434996.20
275    580906.23    3435018.15
275    580892.95    3435175.39
275    580909.07    3435197.71
275    580930.96    3435199.13
275    580945.45    3435007.86
276    580427.95    3435416.01
276    580445.33    3435395.76
276    580439.85    3435390.18
276    580428.15    3435383.17
276    580361.30    3435412.33
276    580411.04    3435420.80
276    580427.95    3435416.01
277    580787.26    3435477.73
277    580793.91    3435470.69
277    580791.54    3435448.02
277    580770.78    3435448.00
277    580773.22    3435477.81
277    580787.26    3435477.73
278    580413.76    3435307.49
278    580414.85    3435289.87
278    580381.67    3435290.32
278    580381.62    3435290.77
278    580380.44    3435305.22
278    580413.19    3435307.98
278    580413.76    3435307.49
279    581433.07    3434784.59
279    581454.25    3434774.69
279    581339.40    3434519.85
279    581320.17    3434542.51
279    581428.35    3434786.15
279    581433.07    3434784.59
280    580396.62    3435517.16
280    580399.18    3435496.70
280    580369.31    3435479.74
280    580286.30    3435515.17
280    580287.84    3435523.41
280    580291.77    3435528.89
280    580296.02    3435531.94
280    580298.08    3435542.25
280    580308.04    3435540.28
280    580314.36    3435542.72
280    580319.36    3435549.69
280    580320.01    3435550.08
280    580396.62    3435517.16
281    581085.31    3435316.42
281    581098.68    3435306.98
281    581098.68    3435306.82
281    581098.85    3435305.58
281    581098.88    3435305.46
281    581098.90    3435305.39
281    581099.28    3435304.32
281    581100.31    3435301.99
281    581100.34    3435301.92
281    581100.37    3435301.83
281    581100.77    3435300.53
281    581101.03    3435299.19
281    581101.09    3435298.02
281    581101.07    3435297.57
281    581101.06    3435297.48
281    581101.05    3435297.43
281    581100.84    3435296.50
281    581100.53    3435295.76
281    581100.53    3435295.75
281    581100.49    3435295.67
281    581099.98    3435294.91
281    581099.18    3435294.04
281    581097.84    3435292.84
281    581097.65    3435292.68
281    581097.56    3435292.61
281    581093.46    3435289.20
281    581093.38    3435289.13
281    581093.25    3435289.02
281    581088.87    3435285.29
281    581087.45    3435284.22
281    581087.18    3435284.05
281    581087.04    3435283.96
281    581086.95    3435283.90
281    581085.53    3435283.11
281    581083.39    3435282.13
281    581081.66    3435281.43
281    581081.57    3435281.39
281    581079.53    3435280.54
281    581078.64    3435280.02
281    581078.13    3435279.57
281    581077.87    3435279.17
281    581077.83    3435279.10
281    581077.81    3435279.03
281    581077.79    3435278.98
281    581077.71    3435278.43
281    581077.80    3435277.57
281    581078.06    3435276.52
281    581078.09    3435276.41
281    581078.89    3435273.95
281    581079.81    3435271.51
281    581079.85    3435271.40
281    581079.87    3435271.35
281    581080.28    3435270.14
281    581080.35    3435269.47
281    581080.26    3435269.00
281    581080.22    3435268.91
281    581080.20    3435268.86
281    581080.18    3435268.82
281    581079.89    3435268.47
281    581079.77    3435268.37
281    581079.76    3435268.37
281    581079.72    3435268.34
281    581079.20    3435268.05
281    581078.42    3435267.83
281    581077.66    3435267.72
281    581077.64    3435267.72
281    581077.58    3435267.71
281    581074.52    3435267.33
281    581074.45    3435267.31
281    581072.32    3435267.04
281    581071.32    3435267.07
281    581070.68    3435267.23
281    581070.63    3435267.24
281    581069.98    3435267.58
281    581068.85    3435268.36
281    581068.46    3435268.56
281    581067.73    3435268.95
281    581065.56    3435269.89
281    581064.96    3435270.17
281    581056.02    3435274.40
281    581053.71    3435300.28
281    581062.68    3435317.87
281    581085.31    3435316.42
282    580925.41    3435537.11
282    580921.54    3435533.76
282    580919.26    3435528.65
282    580914.70    3435522.22
282    580916.15    3435515.57
282    580921.12    3435512.79
282    580795.60    3435509.65
282    580790.19    3435522.38
282    580794.80    3435528.86
282    580898.81    3435537.49
282    580925.41    3435537.11
283    580638.73    3435403.23
283    580645.00    3435327.06
283    580644.09    3435326.00
283    580611.90    3435324.31
283    580608.22    3435374.76
283    580620.01    3435391.23
283    580633.17    3435403.63
283    580638.73    3435403.23
284    580622.05    3435828.65
284    580593.30    3435825.91
284    580590.12    3435833.85
284    580615.70    3435844.36
284    580622.05    3435828.65
285    580313.85    3434704.19
285    580310.30    3434689.87
285    580256.27    3434683.80
285    580244.48    3434703.72
285    580241.22    3434709.12
285    580240.77    3434711.81
285    580305.70    3434719.40
285    580313.85    3434704.19
286    580622.79    3435827.48
286    580650.17    3435762.01
286    580640.51    3435758.69
286    580620.46    3435756.09
286    580593.79    3435823.08
286    580593.30    3435825.91
286    580622.05    3435828.65
286    580622.79    3435827.48
287    581386.28    3435396.18
287    581354.32    3435390.98
287    581353.67    3435391.45
287    581342.39    3435474.37
287    581375.02    3435478.98
287    581386.28    3435396.18
288    580586.72    3435023.78
288    580534.71    3435018.37
288    580540.99    3435032.20
288    580569.43    3435054.73
288    580586.34    3435052.22
288    580586.72    3435023.78
289    580620.01    3435391.23
289    580608.22    3435374.76
289    580602.65    3435371.70
289    580562.57    3435372.00
289    580561.65    3435391.38
289    580562.16    3435391.81
289    580620.01    3435391.23
290    580743.14    3435002.52
290    580745.13    3434999.94
290    580759.74    3434971.37
290    580759.93    3434970.09
290    580748.80    3434919.27
290    580706.17    3434851.13
290    580721.74    3435005.13
290    580738.15    3435006.88
290    580743.14    3435002.52
291    581100.32    3435389.05
291    581102.19    3435366.03
291    581071.49    3435361.15
291    581067.71    3435406.60
291    581067.78    3435406.59
291    581068.79    3435406.21
291    581069.72    3435405.72
291    581069.83    3435405.65
291    581070.18    3435405.40
291    581070.99    3435404.73
291    581071.90    3435403.75
291    581073.26    3435401.95
291    581073.32    3435401.87
291    581073.45    3435401.69
291    581073.71    3435401.34
291    581075.84    3435398.54
291    581077.54    3435396.52
291    581079.04    3435394.92
291    581080.34    3435393.74
291    581080.51    3435393.60
291    581080.66    3435393.48
291    581080.82    3435393.36
291    581082.26    3435392.33
291    581083.97    3435391.32
291    581085.75    3435390.45
291    581087.39    3435389.79
291    581089.08    3435389.28
291    581089.27    3435389.24
291    581089.76    3435389.14
291    581091.75    3435388.86
291    581094.28    3435388.75
291    581097.60    3435388.84
291    581100.32    3435389.05
292    580523.78    3435604.76
292    580528.00    3435592.79
292    580511.72    3435530.65
292    580499.83    3435519.79
292    580486.24    3435520.47
292    580473.27    3435525.00
292    580498.75    3435617.68
292    580509.25    3435620.53
292    580523.78    3435604.76
293    581280.72    3434769.01
293    581244.16    3434747.75
293    581215.57    3434761.03
293    581200.16    3434798.04
293    581199.91    3434804.90
293    581280.72    3434769.01
294    580637.32    3435033.57
294    580590.74    3435064.31
294    580594.43    3435074.48
294    580593.48    3435081.61
294    580589.53    3435088.88
294    580595.67    3435091.70
294    580618.93    3435121.22
294    580629.13    3435128.33
294    580637.32    3435033.57
295    581047.96    3434995.88
295    581036.01    3434968.88
295    580939.79    3435002.20
295    580945.45    3435007.86
295    580971.58    3435024.77
295    581047.96    3434995.88
296    581139.20    3435333.00
296    581138.24    3435332.79
296    581138.03    3435332.75
296    581137.93    3435332.73
296    581133.17    3435332.02
296    581132.93    3435331.97
296    581130.08    3435331.31
296    581122.73    3435329.41
296    581121.29    3435329.12
296    581121.24    3435329.11
296    581120.14    3435328.99
296    581120.11    3435328.99
296    581120.01    3435328.99
296    581119.03    3435329.12
296    581117.66    3435329.52
296    581115.60    3435330.17
296    581115.30    3435330.24
296    581115.20    3435330.26
296    581115.08    3435330.28
296    581113.84    3435330.38
296    581112.21    3435330.30
296    581110.73    3435330.05
296    581109.55    3435329.69
296    581109.11    3435329.49
296    581109.00    3435329.44
296    581108.14    3435328.90
296    581107.68    3435328.52
296    581102.19    3435366.03
296    581135.24    3435367.76
296    581139.20    3435333.00
297    581467.30    3435310.23
297    581452.71    3435404.15
297    581497.10    3435412.60
297    581497.28    3435388.99
297    581497.34    3435382.05
297    581497.44    3435369.00
297    581497.75    3435328.84
297    581497.89    3435309.84
297    581483.18    3435310.33
297    581467.30    3435310.23
298    581442.45    3435015.71
298    581413.68    3434993.21
298    581377.27    3434975.84
298    581373.39    3434975.44
298    581339.72    3434987.61
298    581332.87    3434993.35
298    581344.96    3435022.63
298    581442.45    3435015.71
299    580889.32    3435784.24
299    580888.68    3435783.22
299    580888.00    3435782.73
299    580886.94    3435779.23
299    580885.75    3435772.05
299    580883.59    3435764.66
299    580794.98    3435766.47
299    580792.24    3435768.87
299    580795.84    3435786.64
299    580889.32    3435784.24
300    581053.71    3435300.28
300    581056.02    3435274.40
300    581047.12    3435276.20
300    581026.67    3435266.56
300    581047.27    3435304.45
300    581053.71    3435300.28
301    580894.64    3435655.73
301    580895.22    3435650.10
301    580888.74    3435648.20
301    580886.49    3435645.49
301    580792.80    3435645.14
301    580793.13    3435650.69
301    580794.75    3435655.19
301    580796.26    3435666.13
301    580894.64    3435655.73
302    580421.04    3435216.30
302    580414.85    3435289.87
302    580413.76    3435307.49
302    580446.16    3435310.36
302    580446.37    3435310.19
302    580453.51    3435221.62
302    580427.43    3435219.22
302    580423.53    3435217.05
302    580421.04    3435216.30
303    581316.95    3435428.45
303    581314.98    3435386.25
303    581308.48    3435378.41
303    581289.91    3435421.94
303    581291.91    3435422.89
303    581311.73    3435431.10
303    581312.49    3435424.63
303    581314.20    3435425.80
303    581316.95    3435428.45
304    581071.77    3435626.61
304    581071.01    3435626.01
304    581068.21    3435624.60
304    581051.19    3435660.08
304    581056.09    3435662.43
304    581071.77    3435626.61
305    580586.89    3435652.99
305    580559.53    3435651.28
305    580557.14    3435653.21
305    580562.82    3435663.75
305    580582.20    3435663.75
305    580586.89    3435652.99
306    580821.13    3435303.19
306    580799.73    3435301.84
306    580796.62    3435302.94
306    580797.32    3435334.42
306    580804.93    3435336.17
306    580821.13    3435303.19
307    580576.80    3435590.09
307    580601.78    3435572.89
307    580563.33    3435570.60
307    580562.84    3435571.02
307    580562.50    3435585.90
307    580566.62    3435590.75
307    580576.80    3435590.09
308    580641.00    3435679.31
308    580640.75    3435610.18
308    580627.34    3435619.61
308    580626.17    3435676.89
308    580639.50    3435681.27
308    580641.00    3435679.31
309    581317.55    3434959.77
309    581329.75    3434948.24
309    581318.25    3434933.27
309    581289.45    3434938.14
309    581294.32    3434971.42
309    581317.55    3434959.77
310    581038.93    3435821.55
310    581026.48    3435817.68
310    581009.29    3435855.23
310    581009.88    3435855.63
310    581017.82    3435860.74
310    581018.32    3435859.36
310    581019.07    3435857.28
310    581019.57    3435856.27
310    581020.08    3435855.57
310    581020.16    3435855.48
310    581020.19    3435855.44
310    581020.93    3435854.79
310    581022.10    3435853.82
310    581022.14    3435853.78
310    581022.22    3435853.70
310    581022.83    3435852.94
310    581023.52    3435851.81
310    581024.94    3435849.15
310    581025.00    3435849.06
310    581025.03    3435849.02
310    581025.73    3435848.04
310    581026.45    3435847.27
310    581026.52    3435847.20
310    581026.52    3435847.20
310    581026.60    3435847.13
310    581027.63    3435846.35
310    581029.17    3435845.25
310    581029.81    3435844.65
310    581030.22    3435844.11
310    581030.27    3435844.03
310    581030.30    3435843.98
310    581030.56    3435843.37
310    581030.65    3435842.77
310    581030.64    3435842.57
310    581030.63    3435842.53
310    581030.62    3435842.48
310    581030.25    3435841.12
310    581030.24    3435840.97
310    581030.38    3435840.49
310    581030.69    3435840.01
310    581030.98    3435839.70
310    581031.01    3435839.67
310    581031.06    3435839.63
310    581031.75    3435839.11
310    581033.33    3435838.10
310    581033.46    3435837.99
310    581033.57    3435837.89
310    581034.04    3435837.35
310    581034.51    3435836.60
310    581035.01    3435835.48
310    581035.56    3435833.82
310    581036.18    3435831.32
310    581036.24    3435831.01
310    581036.28    3435830.85
310    581036.30    3435830.76
310    581037.21    3435826.36
310    581037.23    3435826.26
310    581037.26    3435826.17
310    581037.29    3435826.05
310    581037.94    3435824.02
310    581038.83    3435821.77
310    581038.93    3435821.55
311    580413.19    3435307.98
311    580380.44    3435305.22
311    580376.21    3435308.88
311    580373.36    3435343.17
311    580392.94    3435363.45
311    580399.59    3435366.52
311    580408.41    3435368.99
311    580413.19    3435307.98
312    580727.43    3435158.32
312    580739.58    3435009.25
312    580738.15    3435006.88
312    580721.74    3435005.13
312    580705.15    3435007.38
312    580692.81    3435188.61
312    580727.43    3435158.32
313    580550.85    3435571.92
313    580546.70    3435551.92
313    580536.54    3435546.94
313    580543.95    3435576.80
313    580550.85    3435571.92
314    580908.55    3435919.45
314    580905.91    3435908.35
314    580905.37    3435908.47
314    580904.89    3435908.56
314    580904.64    3435908.60
314    580904.55    3435908.61
314    580902.82    3435908.81
314    580901.61    3435908.78
314    580901.15    3435908.69
314    580900.36    3435908.42
314    580899.80    3435907.97
314    580899.38    3435907.44
314    580898.99    3435906.65
314    580898.66    3435905.59
314    580898.41    3435904.06
314    580898.25    3435901.70
314    580898.21    3435900.66
314    580898.15    3435894.38
314    580898.17    3435887.19
314    580899.51    3435881.33
314    580899.97    3435879.64
314    580900.05    3435873.59
314    580899.41    3435868.37
314    580897.57    3435861.35
314    580894.60    3435852.94
314    580893.39    3435845.79
314    580893.37    3435835.60
314    580895.92    3435821.19
314    580889.48    3435830.02
314    580887.97    3435832.68
314    580875.82    3435845.86
314    580862.18    3435865.51
314    580859.18    3435871.00
314    580869.06    3435927.52
314    580908.55    3435919.45
315    580606.11    3435636.21
315    580607.10    3435635.71
315    580613.91    3435627.32
315    580592.94    3435619.57
315    580564.14    3435623.37
315    580561.42    3435629.16
315    580565.48    3435636.54
315    580606.11    3435636.21
316    580423.49    3435486.40
316    580416.01    3435451.11
316    580375.03    3435468.41
316    580369.31    3435479.74
316    580399.18    3435496.70
316    580423.49    3435486.40
317    580294.12    3435017.21
317    580280.18    3435009.10
317    580263.82    3435007.64
317    580218.54    3435003.63
317    580206.21    3435013.59
317    580286.86    3435053.37
317    580294.12    3435017.21
318    581402.60    3434797.91
318    581295.59    3434560.39
318    581278.74    3434568.25
318    581271.33    3434583.04
318    581366.64    3434797.48
318    581383.38    3434805.56
318    581397.20    3434801.25
318    581402.60    3434797.91
319    581122.07    3435585.88
319    581120.34    3435582.15
319    581094.86    3435599.99
319    581097.97    3435603.54
319    581098.74    3435604.36
319    581122.07    3435585.88
320    580734.25    3435155.09
320    580737.42    3435153.24
320    580762.99    3435130.06
320    580763.41    3435129.34
320    580770.00    3435046.07
320    580765.39    3435035.87
320    580739.58    3435009.25
320    580727.43    3435158.32
320    580734.25    3435155.09
321    580748.08    3435725.28
321    580752.95    3435718.14
321    580753.47    3435677.17
321    580752.82    3435676.45
321    580728.49    3435677.72
321    580728.57    3435741.64
321    580748.08    3435725.28
322    581055.51    3435097.91
322    581049.88    3435124.48
322    581073.26    3435126.55
322    581075.04    3435105.90
322    581055.51    3435097.91
323    580824.17    3435359.60
323    580824.34    3435357.69
323    580804.93    3435336.17
323    580797.32    3435334.42
323    580787.97    3435334.23
323    580779.03    3435335.36
323    580776.33    3435337.73
323    580774.66    3435358.70
323    580798.38    3435368.64
323    580824.17    3435359.60
324    580616.00    3435266.98
324    580608.07    3435270.57
324    580586.22    3435290.14
324    580578.47    3435321.63
324    580611.08    3435323.37
324    580616.00    3435266.98
325    580772.71    3435903.34
325    580763.33    3435869.97
325    580754.44    3435863.86
325    580754.36    3435865.26
325    580758.73    3435897.89
325    580771.70    3435904.59
325    580772.71    3435903.34
326    580692.81    3435188.61
326    580705.15    3435007.38
326    580676.91    3435004.83
326    580672.93    3435005.42
326    580659.53    3435164.74
326    580671.04    3435178.95
326    580692.81    3435188.61
327    580392.94    3435363.45
327    580373.36    3435343.17
327    580365.91    3435342.72
327    580334.63    3435356.35
327    580338.37    3435378.67
327    580346.04    3435383.24
327    580392.94    3435363.45
328    580620.46    3435756.09
328    580618.02    3435755.30
328    580603.09    3435752.25
328    580593.21    3435751.34
328    580549.22    3435801.41
328    580593.79    3435823.08
328    580620.46    3435756.09
329    581254.36    3435487.54
329    581250.43    3435484.47
329    581249.90    3435484.21
329    581223.38    3435514.09
329    581225.80    3435516.69
329    581254.36    3435487.54
330    580591.70    3434993.30
330    580593.58    3434965.16
330    580588.79    3434964.80
330    580545.62    3434962.96
330    580517.54    3434988.21
330    580591.41    3434993.39
330    580591.70    3434993.30
331    580949.55    3435912.06
331    580948.66    3435910.28
331    580946.88    3435906.97
331    580946.24    3435906.21
331    580909.78    3435922.07
331    580910.37    3435924.53
331    580949.55    3435912.06
332    580555.27    3435482.79
332    580560.71    3435464.54
332    580539.20    3435452.24
332    580539.23    3435485.91
332    580555.27    3435482.79
333    580885.70    3435726.16
333    580793.40    3435726.05
333    580793.18    3435726.22
333    580794.00    3435746.25
333    580886.17    3435746.27
333    580887.23    3435744.45
333    580888.28    3435741.45
333    580888.58    3435738.71
333    580888.52    3435735.97
333    580888.13    3435733.62
333    580886.87    3435730.13
333    580885.70    3435726.16
334    581033.86    3435777.22
334    581030.79    3435777.04
334    581029.29    3435777.26
334    581021.57    3435816.09
334    581021.78    3435816.21
334    581026.21    3435817.59
334    581033.86    3435777.22
335    580321.00    3434705.33
335    580313.85    3434704.19
335    580305.70    3434719.40
335    580302.75    3434748.48
335    580443.11    3434765.55
335    580436.79    3434754.94
335    580438.83    3434729.56
335    580414.03    3434732.57
335    580411.21    3434735.84
335    580381.54    3434733.11
335    580378.86    3434718.44
335    580363.53    3434713.83
335    580360.66    3434711.35
335    580321.00    3434705.33
336    580672.93    3435005.42
336    580671.50    3435005.33
336    580638.65    3435031.50
336    580637.32    3435033.57
336    580629.13    3435128.33
336    580649.62    3435156.19
336    580659.53    3435164.74
336    580672.93    3435005.42
337    581272.51    3435009.69
337    581294.32    3434971.42
337    581289.45    3434938.14
337    581278.23    3434925.31
337    581254.77    3434914.20
337    581267.35    3435014.39
337    581272.51    3435009.69
338    581213.60    3435040.60
338    581212.69    3435040.50
338    581176.97    3435043.27
338    581176.54    3435043.38
338    581159.87    3435041.84
338    581160.00    3435041.94
338    581160.50    3435042.37
338    581160.67    3435042.51
338    581160.91    3435042.72
338    581163.04    3435044.69
338    581165.77    3435047.45
338    581169.06    3435051.01
338    581171.97    3435054.35
338    581174.23    3435057.15
338    581175.14    3435058.38
338    581175.99    3435059.52
338    581177.26    3435061.44
338    581177.89    3435062.53
338    581177.99    3435062.71
338    581178.11    3435062.95
338    581179.05    3435064.91
338    581180.06    3435067.43
338    581181.70    3435072.08
338    581182.79    3435075.19
338    581182.88    3435075.44
338    581182.95    3435075.63
338    581185.15    3435081.64
338    581185.87    3435084.04
338    581185.97    3435084.41
338    581186.01    3435084.60
338    581186.09    3435084.91
338    581186.50    3435087.12
338    581186.85    3435090.01
338    581187.07    3435093.58
338    581187.12    3435097.15
338    581186.99    3435100.07
338    581186.93    3435100.71
338    581186.92    3435100.83
338    581186.60    3435103.30
338    581186.14    3435105.51
338    581185.97    3435106.17
338    581185.94    3435106.28
338    581185.92    3435106.36
338    581185.10    3435108.89
338    581184.54    3435110.53
338    581184.52    3435110.62
338    581183.59    3435110.55
338    581182.25    3435126.96
338    581178.39    3435126.67
338    581177.92    3435130.85
338    581182.23    3435131.31
338    581182.23    3435131.62
338    581182.07    3435142.14
338    581182.12    3435146.47
338    581182.13    3435146.78
338    581182.14    3435147.06
338    581186.52    3435148.54
338    581185.82    3435201.34
338    581192.65    3435209.23
338    581200.59    3435209.76
338    581205.02    3435152.81
338    581213.60    3435040.60
339    580794.80    3435528.86
339    580790.19    3435522.38
339    580729.06    3435521.35
339    580714.89    3435532.78
339    580710.67    3435538.04
339    580789.02    3435542.47
339    580794.80    3435528.86
340    580586.77    3435461.14
340    580594.15    3435443.29
340    580561.89    3435446.88
340    580564.26    3435461.41
340    580586.77    3435461.14
341    580776.28    3434911.02
341    580786.62    3434855.12
341    580779.65    3434822.64
341    580774.96    3434833.78
341    580699.84    3434832.49
341    580706.17    3434851.13
341    580748.80    3434919.27
341    580776.28    3434911.02
342    581171.77    3435342.11
342    581171.65    3435341.84
342    581171.63    3435341.82
342    581171.61    3435341.78
342    581171.32    3435341.57
342    581170.80    3435341.41
342    581169.80    3435341.32
342    581169.77    3435341.32
342    581169.65    3435341.31
342    581167.94    3435341.09
342    581164.70    3435340.40
342    581164.49    3435340.36
342    581154.69    3435338.45
342    581154.01    3435338.29
342    581153.78    3435338.23
342    581153.73    3435338.22
342    581153.36    3435338.06
342    581153.32    3435338.03
342    581153.31    3435338.03
342    581153.28    3435337.99
342    581153.14    3435337.73
342    581153.10    3435337.57
342    581153.10    3435337.54
342    581153.09    3435337.49
342    581153.15    3435336.76
342    581153.19    3435336.07
342    581153.14    3435335.89
342    581153.14    3435335.89
342    581153.12    3435335.84
342    581152.89    3435335.53
342    581152.52    3435335.23
342    581152.45    3435335.19
342    581151.84    3435334.93
342    581151.04    3435334.77
342    581149.61    3435334.74
342    581148.43    3435334.75
342    581148.21    3435334.74
342    581146.52    3435334.55
342    581143.82    3435334.02
342    581139.20    3435333.00
342    581135.24    3435367.76
342    581168.34    3435370.22
342    581171.77    3435342.11
343    580721.74    3435005.13
343    580706.17    3434851.13
343    580693.76    3434814.56
343    580690.56    3434815.44
343    580689.59    3434815.80
343    580689.49    3434815.84
343    580689.44    3434815.86
343    580688.51    3434816.21
343    580688.09    3434816.24
343    580688.06    3434816.23
343    580688.01    3434816.23
343    580687.57    3434816.05
343    580686.63    3434815.52
343    580686.58    3434815.50
343    580686.04    3434815.37
343    580685.48    3434815.40
343    580685.44    3434815.41
343    580685.39    3434815.42
343    580684.88    3434815.63
343    580684.56    3434815.88
343    580684.54    3434815.89
343    580684.51    3434815.93
343    580684.21    3434816.35
343    580684.04    3434816.83
343    580684.03    3434816.92
343    580684.03    3434816.94
343    580684.03    3434816.98
343    580684.11    3434817.48
343    580684.38    3434818.00
343    580685.04    3434818.80
343    580685.22    3434819.02
343    580685.24    3434819.03
343    580685.28    3434819.08
343    580685.69    3434819.65
343    580685.83    3434820.07
343    580685.82    3434820.26
343    580685.81    3434820.32
343    580685.64    3434820.69
343    580685.57    3434820.77
343    580685.54    3434820.80
343    580685.50    3434820.83
343    580685.18    3434821.02
343    580684.71    3434821.10
343    580683.84    3434820.98
343    580683.34    3434820.87
343    580683.29    3434820.86
343    580683.22    3434820.85
343    580681.89    3434820.67
343    580680.50    3434820.67
343    580679.83    3434820.74
343    580679.76    3434820.75
343    580679.63    3434820.77
343    580679.38    3434820.82
343    580676.91    3435004.83
343    580705.15    3435007.38
343    580721.74    3435005.13
344    581226.73    3435517.73
344    581225.80    3435516.69
344    581223.38    3435514.09
344    581222.34    3435513.35
344    581198.08    3435534.43
344    581199.78    3435536.83
344    581200.25    3435537.42
344    581226.73    3435517.73
345    580356.95    3434498.71
345    580343.13    3434497.13
345    580321.83    3434532.33
345    580327.47    3434540.28
345    580392.66    3434545.45
345    580384.04    3434523.89
345    580359.72    3434509.95
345    580356.95    3434498.71
346    580682.90    3435565.34
346    580685.81    3435561.63
346    580686.62    3435405.67
346    580674.59    3435403.85
346    580652.88    3435406.01
346    580655.86    3435537.74
346    580670.62    3435561.15
346    580680.56    3435567.75
346    580682.90    3435565.34
347    581197.52    3435534.02
347    581192.45    3435526.85
347    581192.12    3435527.07
347    581186.06    3435530.84
347    581179.62    3435534.85
347    581176.51    3435536.93
347    581176.13    3435537.20
347    581175.75    3435537.47
347    581175.63    3435537.55
347    581169.80    3435541.95
347    581169.76    3435541.98
347    581169.03    3435542.58
347    581168.67    3435543.06
347    581168.57    3435543.80
347    581168.54    3435544.29
347    581169.15    3435545.50
347    581169.86    3435546.91
347    581168.27    3435547.92
347    581170.04    3435550.67
347    581170.47    3435551.33
347    581197.52    3435534.02
348    580324.88    3434576.14
348    580242.72    3434565.81
348    580142.30    3434561.64
348    580112.04    3434559.71
348    580092.63    3434560.54
348    580095.34    3434561.88
348    580104.09    3434563.24
348    580106.80    3434564.58
348    580110.84    3434564.58
348    580114.40    3434565.92
348    580137.99    3434568.32
348    580193.88    3434566.29
348    580243.14    3434572.72
348    580322.99    3434581.46
348    580324.88    3434576.14
349    580830.28    3435928.95
349    580832.36    3435920.63
349    580830.12    3435919.07
349    580796.76    3435910.38
349    580800.95    3435934.03
349    580804.59    3435937.67
349    580813.95    3435928.87
349    580814.53    3435926.31
349    580815.21    3435925.51
349    580816.04    3435925.22
349    580816.26    3435925.16
349    580817.38    3435924.97
349    580818.74    3435924.99
349    580820.34    3435925.24
349    580822.08    3435925.70
349    580824.49    3435926.52
349    580827.22    3435927.62
349    580827.44    3435927.72
349    580827.72    3435927.84
349    580830.28    3435928.95
350    581500.09    3435023.86
350    581488.24    3435025.19
350    581466.65    3435226.66
350    581497.03    3435228.10
350    581498.52    3435228.20
350    581499.03    3435161.46
350    581499.09    3435153.86
350    581499.21    3435137.87
350    581499.25    3435133.42
350    581499.37    3435118.21
350    581499.52    3435098.30
350    581499.68    3435077.60
350    581499.85    3435055.25
350    581500.01    3435034.87
350    581500.09    3435023.86
351    580361.30    3435412.33
351    580428.15    3435383.17
351    580408.41    3435368.99
351    580399.59    3435366.52
351    580355.61    3435409.43
351    580358.26    3435412.75
351    580361.30    3435412.33
352    580860.58    3435624.66
352    580905.84    3435626.12
352    580909.14    3435615.17
352    580919.43    3435615.91
352    580921.32    3435613.03
352    580921.84    3435606.83
352    580794.23    3435606.31
352    580791.68    3435625.32
352    580860.58    3435624.66
353    580676.91    3435004.83
353    580679.38    3434820.82
353    580678.06    3434821.09
353    580676.37    3434821.62
353    580674.58    3434822.33
353    580673.34    3434822.93
353    580672.97    3434823.12
353    580671.19    3434824.16
353    580668.79    3434825.76
353    580664.80    3434828.67
353    580658.52    3434833.29
353    580656.49    3434834.68
353    580656.13    3434834.92
353    580653.17    3434836.74
353    580652.37    3434837.19
353    580641.31    3434969.44
353    580641.65    3434970.36
353    580664.41    3434999.51
353    580671.50    3435005.33
353    580672.93    3435005.42
353    580676.91    3435004.83
354    581073.57    3435346.10
354    581055.20    3435338.09
354    581046.43    3435342.30
354    581039.34    3435352.19
354    581039.24    3435367.20
354    581071.49    3435361.15
354    581073.57    3435346.10
355    580707.71    3435869.10
355    580688.56    3435860.70
355    580687.82    3435861.66
355    580683.30    3435872.65
355    580690.35    3435877.15
355    580702.30    3435877.82
355    580705.86    3435873.13
355    580707.71    3435869.10
356    580999.62    3434872.91
356    580991.36    3434848.69
356    580984.47    3434840.28
356    580968.37    3434839.42
356    580969.24    3434845.48
356    580961.92    3434887.57
356    580999.62    3434872.91
357    580558.72    3435288.00
357    580562.39    3435269.84
357    580550.24    3435265.19
357    580522.83    3435262.68
357    580542.22    3435286.02
357    580558.02    3435288.09
357    580558.72    3435288.00
358    580763.44    3435937.39
358    580771.36    3435939.21
358    580771.70    3435904.59
358    580758.73    3435897.89
358    580756.04    3435899.89
358    580722.86    3435929.41
358    580745.12    3435935.48
358    580763.44    3435937.39
359    581354.32    3435390.98
359    581360.66    3435340.87
359    581366.19    3435323.75
359    581355.35    3435333.09
359    581342.41    3435348.08
359    581310.91    3435360.10
359    581308.19    3435361.83
359    581306.37    3435375.74
359    581308.48    3435378.41
359    581314.98    3435386.25
359    581353.67    3435391.45
359    581354.32    3435390.98
360    580894.64    3435655.73
360    580796.26    3435666.13
360    580791.74    3435676.58
360    580796.63    3435684.63
360    580892.27    3435695.97
360    580892.81    3435680.11
360    580902.32    3435675.98
360    580903.44    3435665.03
360    580901.07    3435662.18
360    580894.41    3435658.07
360    580894.64    3435655.73
361    581053.84    3435030.35
361    581055.29    3435007.29
361    581047.96    3434995.88
361    580971.58    3435024.77
361    580984.57    3435038.18
361    581003.13    3435048.24
361    581053.84    3435030.35
362    581310.91    3435360.10
362    581321.85    3435313.73
362    581285.86    3435301.35
362    581276.11    3435310.19
362    581283.31    3435335.30
362    581308.19    3435361.83
362    581310.91    3435360.10
363    580617.10    3435678.29
363    580607.37    3435671.94
363    580602.31    3435676.53
363    580603.09    3435752.25
363    580618.02    3435755.30
363    580617.10    3435678.29
364    581249.90    3435484.21
364    581242.59    3435478.47
364    581242.39    3435478.77
364    581242.20    3435479.04
364    581239.67    3435482.51
364    581236.83    3435486.17
364    581234.09    3435489.47
364    581232.34    3435491.45
364    581232.12    3435491.69
364    581231.87    3435491.96
364    581229.34    3435494.56
364    581225.41    3435498.36
364    581223.66    3435500.02
364    581216.80    3435507.38
364    581222.34    3435513.35
364    581223.38    3435514.09
364    581249.90    3435484.21
365    580837.38    3435392.90
365    580824.17    3435359.60
365    580798.38    3435368.64
365    580789.87    3435382.87
365    580795.15    3435392.96
365    580837.38    3435392.90
366    580294.91    3434808.86
366    580193.31    3434796.43
366    580156.13    3434793.45
366    580159.66    3434804.02
366    580176.02    3434819.18
366    580178.92    3434825.32
366    580193.31    3434826.84
366    580276.53    3434836.71
366    580292.14    3434836.87
366    580294.91    3434808.86
367    581249.93    3435040.58
367    581267.35    3435014.39
367    581254.77    3434914.20
367    581248.88    3434907.73
367    581222.84    3434895.94
367    581239.68    3435040.35
367    581244.10    3435041.05
367    581249.93    3435040.58
368    580491.63    3435147.34
368    580496.40    3435141.35
368    580508.45    3434993.11
368    580485.71    3434989.58
368    580472.03    3434990.52
368    580456.10    3435176.56
368    580491.63    3435147.34
369    581076.04    3435082.41
369    581073.43    3435060.60
369    581024.46    3435068.12
369    581055.51    3435097.91
369    581075.04    3435105.90
369    581076.04    3435082.41
370    580429.82    3434986.98
370    580423.48    3434985.04
370    580393.25    3434983.15
370    580388.45    3434983.68
370    580373.89    3435145.80
370    580386.25    3435155.10
370    580388.05    3435157.43
370    580392.09    3435163.50
370    580401.15    3435165.08
370    580405.36    3435168.45
370    580407.16    3435170.70
370    580411.43    3435172.50
370    580415.26    3435174.75
370    580429.82    3434986.98
371    580641.31    3434969.44
371    580609.81    3434934.45
371    580596.55    3434939.28
371    580593.62    3434965.15
371    580641.65    3434970.36
371    580641.31    3434969.44
372    580281.84    3434957.64
372    580279.22    3434933.26
372    580232.54    3434927.36
372    580232.83    3434958.84
372    580268.93    3434963.06
372    580275.91    3434963.88
372    580281.84    3434957.64
373    581257.03    3435489.63
373    581254.64    3435487.75
373    581254.36    3435487.54
373    581225.80    3435516.69
373    581226.73    3435517.73
373    581229.09    3435520.25
373    581230.30    3435519.16
373    581230.78    3435518.70
373    581230.97    3435518.50
373    581232.71    3435516.67
373    581235.11    3435513.90
373    581237.48    3435511.08
373    581240.15    3435507.91
373    581247.55    3435500.11
373    581247.63    3435500.02
373    581247.68    3435499.98
373    581252.92    3435494.35
373    581253.80    3435493.37
373    581253.92    3435493.23
373    581254.14    3435492.99
373    581257.03    3435489.63
374    580563.48    3435330.73
374    580578.47    3435321.63
374    580586.22    3435290.14
374    580567.06    3435288.89
374    580562.71    3435330.73
374    580563.48    3435330.73
375    581127.44    3434878.62
375    581107.36    3434883.41
375    581125.48    3435020.83
375    581127.04    3435021.85
375    581127.29    3435022.01
375    581127.54    3435022.16
375    581127.75    3435022.30
375    581132.29    3435025.02
375    581138.20    3435028.39
375    581138.42    3435028.51
375    581138.69    3435028.66
375    581148.61    3435034.17
375    581151.50    3435035.90
375    581151.71    3435036.02
375    581127.44    3434878.62
376    580671.27    3435847.47
376    580671.47    3435846.99
376    580664.72    3435800.19
376    580644.77    3435848.68
376    580644.23    3435851.27
376    580671.27    3435847.47
377    580749.03    3435854.34
377    580748.20    3435852.30
377    580722.55    3435882.68
377    580708.73    3435917.45
377    580708.92    3435920.79
377    580717.16    3435925.89
377    580721.87    3435918.97
377    580749.03    3435854.34
378    581061.50    3435176.11
378    581051.94    3435174.86
378    581003.39    3435166.36
378    580982.94    3435182.26
378    581061.11    3435193.24
378    581061.50    3435176.11
379    581332.87    3434993.35
379    581339.72    3434987.61
379    581317.55    3434959.77
379    581294.32    3434971.42
379    581272.51    3435009.69
379    581332.87    3434993.35
380    580799.28    3434784.54
380    580791.64    3434786.07
380    580789.77    3434800.38
380    580781.52    3434802.25
380    580779.65    3434822.64
380    580786.62    3434855.12
380    580809.20    3434913.44
380    580853.10    3434932.76
380    580856.73    3434932.89
380    580801.91    3434790.77
380    580800.09    3434784.60
380    580799.28    3434784.54
381    580460.81    3435652.74
381    580469.32    3435622.81
381    580462.69    3435619.40
381    580388.35    3435651.11
381    580385.70    3435660.20
381    580395.00    3435672.52
381    580400.08    3435674.60
381    580398.17    3435679.45
381    580460.81    3435652.74
382    580361.56    3435219.82
382    580360.83    3435217.53
382    580365.43    3435201.05
382    580370.13    3435192.84
382    580369.35    3435191.55
382    580283.11    3435213.43
382    580278.93    3435220.07
382    580292.62    3435239.28
382    580361.56    3435219.82
383    580895.92    3435821.19
383    580896.13    3435820.04
383    580896.90    3435814.24
383    580896.93    3435810.34
383    580796.14    3435807.77
383    580795.68    3435808.20
383    580792.22    3435815.42
383    580795.51    3435829.21
383    580889.48    3435830.02
383    580895.92    3435821.19
384    580881.66    3435256.08
384    580910.54    3435226.38
384    580899.84    3435227.51
384    580864.56    3435231.22
384    580842.45    3435231.44
384    580801.20    3435232.91
384    580799.49    3435251.21
384    580801.70    3435254.30
384    580874.34    3435260.82
384    580881.66    3435256.08
385    580924.79    3435489.46
385    580910.23    3435474.00
385    580793.91    3435470.69
385    580787.26    3435477.73
385    580795.34    3435490.31
385    580924.79    3435489.46
386    580456.10    3435176.56
386    580472.03    3434990.52
386    580455.09    3434987.10
386    580429.82    3434986.98
386    580415.26    3435174.75
386    580429.42    3435178.79
386    580434.59    3435179.69
386    580436.25    3435181.48
386    580456.10    3435176.56
387    581500.09    3435023.86
387    581500.16    3435014.12
387    581500.41    3434981.69
387    581500.47    3434974.67
387    581500.53    3434966.46
387    581500.59    3434958.55
387    581500.63    3434953.29
387    581500.65    3434950.32
387    581500.72    3434941.25
387    581433.07    3434784.59
387    581428.35    3434786.15
387    581402.60    3434797.91
387    581397.20    3434801.25
387    581480.85    3435024.77
387    581488.24    3435025.19
387    581500.09    3435023.86
388    580511.34    3435624.42
388    580509.25    3435620.53
388    580498.75    3435617.68
388    580469.32    3435622.81
388    580460.81    3435652.74
388    580473.17    3435680.08
388    580491.64    3435683.63
388    580511.34    3435624.42
389    580800.95    3435934.03
389    580796.76    3435910.38
389    580791.28    3435896.82
389    580779.06    3435898.77
389    580772.71    3435903.34
389    580771.70    3435904.59
389    580771.36    3435939.21
389    580778.83    3435940.68
389    580804.59    3435937.67
389    580800.95    3435934.03
390    580455.05    3435397.21
390    580445.33    3435395.76
390    580427.95    3435416.01
390    580416.01    3435451.11
390    580423.49    3435486.40
390    580456.91    3435504.68
390    580455.05    3435397.21
391    581215.57    3434761.03
391    581171.49    3434659.14
391    581167.64    3434660.92
391    581150.80    3434657.78
391    581138.51    3434650.94
391    581200.16    3434798.04
391    581215.57    3434761.03
392    580752.82    3435676.45
392    580753.13    3435632.28
392    580726.58    3435612.29
392    580726.85    3435675.16
392    580728.49    3435677.72
392    580752.82    3435676.45
393    581355.30    3435148.09
393    581354.19    3435132.26
393    581327.14    3435129.45
393    581325.21    3435150.85
393    581355.30    3435148.09
394    580931.14    3435498.19
394    580932.93    3435497.73
394    580930.65    3435494.78
394    580924.79    3435489.46
394    580795.34    3435490.31
394    580790.37    3435502.14
394    580795.60    3435509.65
394    580921.12    3435512.79
394    580924.67    3435510.80
394    580926.27    3435501.41
394    580931.14    3435498.19
395    580454.71    3435221.73
395    580453.51    3435221.62
395    580446.37    3435310.19
395    580479.10    3435312.91
395    580487.08    3435224.24
395    580485.33    3435223.74
395    580458.31    3435225.91
395    580454.71    3435221.73
396    581079.03    3434891.60
396    581028.72    3434759.74
396    581020.44    3434780.73
396    581013.73    3434789.28
396    581019.66    3434798.24
396    581022.85    3434804.00
396    581021.48    3434804.54
396    581028.93    3434819.40
396    581032.44    3434826.36
396    581032.60    3434826.30
396    581032.61    3434826.31
396    581031.92    3434827.66
396    581034.52    3434831.21
396    581036.03    3434835.87
396    581038.47    3434843.47
396    581042.65    3434854.10
396    581045.85    3434863.87
396    581047.17    3434867.18
396    581049.58    3434872.38
396    581062.00    3434894.90
396    581079.03    3434891.60
397    581353.67    3435391.45
397    581314.98    3435386.25
397    581316.95    3435428.45
397    581319.03    3435430.45
397    581318.62    3435432.48
397    581318.39    3435435.32
397    581342.39    3435474.37
397    581353.67    3435391.45
398    580809.09    3434950.69
398    580799.23    3434923.20
398    580782.17    3434929.60
398    580759.93    3434970.09
398    580759.74    3434971.37
398    580809.09    3434950.69
399    580869.05    3435928.01
399    580869.06    3435927.52
399    580859.18    3435871.00
399    580852.53    3435876.59
399    580842.58    3435926.56
399    580869.03    3435928.40
399    580869.05    3435928.01
400    581355.30    3435148.09
400    581325.21    3435150.85
400    581286.57    3435185.90
400    581330.23    3435187.30
400    581350.65    3435180.31
400    581355.30    3435148.09
401    581309.15    3435453.09
401    581309.62    3435446.98
401    581311.62    3435432.03
401    581311.73    3435431.10
401    581291.91    3435422.89
401    581274.57    3435453.37
401    581275.02    3435453.64
401    581280.28    3435456.66
401    581281.91    3435454.00
401    581285.11    3435448.79
401    581286.03    3435447.95
401    581286.62    3435447.58
401    581286.98    3435447.45
401    581287.01    3435447.44
401    581287.06    3435447.43
401    581287.69    3435447.33
401    581288.71    3435447.41
401    581288.73    3435447.41
401    581288.81    3435447.42
401    581290.46    3435447.76
401    581292.12    3435448.26
401    581292.49    3435448.40
401    581292.56    3435448.42
401    581292.64    3435448.46
401    581294.05    3435449.12
401    581295.63    3435450.03
401    581296.11    3435450.34
401    581296.18    3435450.39
401    581296.27    3435450.46
401    581297.72    3435451.58
401    581300.62    3435454.02
401    581300.60    3435454.08
401    581300.44    3435454.96
401    581300.42    3435456.15
401    581300.53    3435456.92
401    581300.57    3435457.18
401    581300.63    3435457.37
401    581300.65    3435457.44
401    581300.67    3435457.50
401    581301.01    3435458.23
401    581301.58    3435459.06
401    581302.21    3435459.76
401    581302.30    3435459.84
401    581302.35    3435459.87
401    581303.11    3435460.42
401    581303.99    3435460.87
401    581304.82    3435461.13
401    581304.87    3435461.14
401    581304.92    3435461.15
401    581305.78    3435461.19
401    581306.63    3435461.05
401    581306.92    3435460.95
401    581306.95    3435460.94
401    581306.99    3435460.92
401    581307.60    3435460.57
401    581308.09    3435460.14
401    581308.11    3435460.11
401    581308.15    3435460.08
401    581308.63    3435459.43
401    581309.07    3435458.58
401    581309.24    3435458.16
401    581309.24    3435458.14
401    581309.26    3435458.09
401    581309.51    3435457.03
401    581309.66    3435455.63
401    581309.66    3435455.58
401    581309.66    3435455.52
401    581309.62    3435454.36
401    581309.49    3435453.78
401    581309.47    3435453.71
401    581309.15    3435453.09
402    581039.36    3435698.19
402    581036.31    3435697.33
402    581033.33    3435697.13
402    581027.47    3435736.92
402    581030.50    3435737.12
402    581030.73    3435737.13
402    581039.36    3435698.19
403    580892.27    3435695.97
403    580796.63    3435684.63
403    580788.13    3435700.96
403    580794.24    3435705.67
403    580889.88    3435706.27
403    580889.96    3435704.60
403    580890.99    3435699.61
403    580892.27    3435695.97
404    580449.63    3435787.85
404    580451.91    3435789.61
404    580454.17    3435795.12
404    580462.03    3435791.90
404    580465.82    3435789.61
404    580483.15    3435786.71
404    580485.58    3435789.75
404    580497.17    3435792.26
404    580506.53    3435799.75
404    580511.04    3435809.94
404    580530.24    3435811.73
404    580527.22    3435805.04
404    580508.78    3435762.42
404    580449.63    3435787.85
405    581350.65    3435180.31
405    581330.23    3435187.30
405    581233.01    3435184.18
405    581230.82    3435211.77
405    581332.34    3435218.52
405    581340.06    3435217.05
405    581346.71    3435216.74
405    581350.65    3435180.31
406    581244.16    3434747.75
406    581280.72    3434769.01
406    581290.78    3434769.84
406    581225.47    3434624.19
406    581209.40    3434634.45
406    581199.33    3434646.06
406    581244.16    3434747.75
407    580562.50    3435585.90
407    580562.84    3435571.02
407    580550.85    3435571.92
407    580543.95    3435576.80
407    580534.21    3435588.41
407    580562.50    3435585.90
408    581015.97    3434920.37
408    581009.28    3434896.01
408    580947.92    3434919.95
408    580935.50    3434942.19
408    580932.79    3434952.03
408    581015.97    3434920.37
409    581030.50    3435737.12
409    581027.47    3435736.92
409    581024.77    3435737.29
409    581030.79    3435777.04
409    581033.86    3435777.22
409    581034.23    3435777.24
409    581030.50    3435737.12
410    581113.80    3435107.41
410    581109.16    3435182.34
410    581131.35    3435184.68
410    581134.62    3435109.35
410    581113.80    3435107.41
411    581113.80    3435107.41
411    581075.04    3435105.90
411    581073.26    3435126.55
411    581074.41    3435153.31
411    581074.42    3435177.80
411    581109.16    3435182.34
411    581113.80    3435107.41
412    581308.48    3435378.41
412    581306.37    3435375.74
412    581295.52    3435380.79
412    581287.92    3435420.79
412    581288.89    3435421.53
412    581289.91    3435421.94
412    581308.48    3435378.41
413    580439.26    3434789.57
413    580432.96    3434793.67
413    580406.49    3434816.09
413    580393.25    3434983.15
413    580423.48    3434985.04
413    580439.26    3434789.57
414    580380.48    3434818.54
414    580354.79    3434815.35
414    580348.52    3434899.91
414    580344.60    3434952.91
414    580352.37    3434966.26
414    580366.13    3434980.14
414    580367.85    3434980.13
414    580380.48    3434818.54
415    581160.64    3434869.69
415    581084.75    3434674.17
415    581076.76    3434680.80
415    581055.92    3434683.21
415    581130.90    3434877.17
415    581160.64    3434869.69
416    581073.43    3435060.60
416    581073.04    3435057.20
416    581053.84    3435030.35
416    581003.13    3435048.24
416    581022.14    3435067.26
416    581024.46    3435068.12
416    581073.43    3435060.60
417    581074.41    3435153.31
417    581025.26    3435150.24
417    581014.87    3435154.79
417    581003.39    3435166.36
417    581051.94    3435174.86
417    581074.42    3435177.80
417    581074.41    3435153.31
418    580923.16    3435567.10
418    580926.98    3435563.80
418    580928.89    3435540.09
418    580925.41    3435537.11
418    580898.81    3435537.49
418    580794.24    3435549.33
418    580790.23    3435562.18
418    580794.56    3435567.73
418    580923.16    3435567.10
419    581046.28    3435658.75
419    581029.22    3435649.97
419    581027.29    3435654.27
419    581025.21    3435659.22
419    581025.06    3435659.61
419    581024.45    3435661.17
419    581022.88    3435665.51
419    581021.66    3435669.30
419    581021.60    3435669.50
419    581021.49    3435669.87
419    581020.68    3435672.84
419    581017.05    3435687.85
419    581016.95    3435688.23
419    581016.89    3435688.45
419    581015.89    3435692.30
419    581033.33    3435697.13
419    581036.31    3435697.33
419    581046.28    3435658.75
420    580362.16    3435433.66
420    580358.26    3435412.75
420    580355.61    3435409.43
420    580350.19    3435406.26
420    580319.42    3435419.11
420    580326.00    3435427.52
420    580330.46    3435429.51
420    580338.69    3435435.96
420    580337.95    3435444.10
420    580362.16    3435433.66
421    580327.47    3434540.28
421    580321.83    3434532.33
421    580193.31    3434517.62
421    580099.00    3434519.70
421    580097.82    3434553.58
421    580245.46    3434555.42
421    580325.44    3434565.55
421    580327.47    3434540.28
422    580652.88    3435406.01
422    580638.73    3435403.23
422    580633.17    3435403.63
422    580623.80    3435413.13
422    580622.15    3435415.59
422    580619.83    3435503.23
422    580655.86    3435537.74
422    580652.88    3435406.01
423    580859.58    3435142.57
423    580848.13    3435137.27
423    580799.09    3435160.02
423    580808.55    3435169.55
423    580889.40    3435172.36
423    580859.58    3435142.57
424    581387.12    3435395.59
424    581396.58    3435322.47
424    581394.81    3435320.19
424    581380.39    3435318.42
424    581374.50    3435316.11
424    581367.37    3435317.28
424    581366.19    3435323.75
424    581360.66    3435340.87
424    581354.32    3435390.98
424    581386.28    3435396.18
424    581387.12    3435395.59
425    580791.28    3435896.82
425    580774.14    3435877.35
425    580779.06    3435898.77
425    580791.28    3435896.82
426    580743.79    3435895.25
426    580754.36    3435865.26
426    580754.44    3435863.86
426    580749.03    3435854.34
426    580721.87    3435918.97
426    580743.79    3435895.25
427    580419.29    3435540.17
427    580396.62    3435517.16
427    580320.01    3435550.08
427    580331.39    3435556.04
427    580332.45    3435561.84
427    580341.73    3435573.17
427    580419.29    3435540.17
428    580932.79    3434952.03
428    580935.50    3434942.19
428    580893.06    3434840.23
428    580876.62    3434835.97
428    580874.75    3434826.54
428    580872.57    3434822.64
428    580870.70    3434818.44
428    580867.00    3434811.81
428    580861.15    3434796.39
428    580856.46    3434796.02
428    580841.17    3434797.24
428    580901.90    3434954.52
428    580909.78    3434960.39
428    580925.67    3434968.49
428    580932.79    3434952.03
429    580795.15    3435392.96
429    580789.87    3435382.87
429    580756.41    3435381.96
429    580738.32    3435393.45
429    580732.10    3435401.93
429    580789.58    3435402.50
429    580795.15    3435392.96
430    581502.13    3434758.65
430    581502.17    3434752.57
430    581502.37    3434727.23
430    581502.46    3434715.19
430    581502.42    3434688.37
430    581267.29    3434393.68
430    581253.12    3434396.26
430    581339.40    3434519.85
430    581454.25    3434774.69
430    581502.13    3434758.65
431    580270.73    3435157.57
431    580278.46    3435150.91
431    580276.81    3435139.25
431    580212.35    3435150.13
431    580245.53    3435161.07
431    580270.73    3435157.57
432    580276.53    3434836.71
432    580193.31    3434826.84
432    580178.92    3434825.32
432    580180.23    3434828.10
432    580190.23    3434838.89
432    580208.28    3434835.75
432    580217.03    3434852.28
432    580215.09    3434861.05
432    580272.64    3434868.23
432    580276.53    3434836.71
433    581275.02    3435453.64
433    581274.57    3435453.37
433    581271.60    3435451.71
433    581250.43    3435484.47
433    581254.36    3435487.54
433    581254.64    3435487.75
433    581275.02    3435453.64
434    581244.10    3435041.05
434    581239.68    3435040.35
434    581213.60    3435040.60
434    581200.59    3435209.76
434    581230.82    3435211.77
434    581233.01    3435184.18
434    581244.10    3435041.05
435    580313.91    3434659.23
435    580316.63    3434630.43
435    580208.67    3434617.13
435    580209.99    3434635.40
435    580209.05    3434636.49
435    580202.83    3434638.36
435    580196.99    3434641.62
435    580183.01    3434644.80
435    580312.92    3434660.17
435    580313.91    3434659.23
436    580981.13    3435269.01
436    580970.09    3435239.91
436    580946.05    3435228.58
436    580940.77    3435349.29
436    580946.94    3435350.11
436    580951.43    3435352.82
436    580958.43    3435354.99
436    580966.08    3435359.60
436    580973.82    3435356.56
436    580981.13    3435269.01
437    581318.25    3434933.27
437    581337.67    3434900.10
437    581278.23    3434925.31
437    581289.45    3434938.14
437    581318.25    3434933.27
438    580312.92    3434660.17
438    580183.01    3434644.80
438    580185.07    3434670.36
438    580193.31    3434676.73
438    580310.30    3434689.87
438    580312.92    3434660.17
439    580434.01    3435582.80
439    580427.48    3435563.10
439    580419.29    3435540.17
439    580341.73    3435573.17
439    580351.22    3435584.25
439    580358.63    3435589.50
439    580361.74    3435590.44
439    580364.65    3435611.82
439    580434.01    3435582.80
440    581107.68    3435328.52
440    581107.15    3435328.08
440    581105.94    3435326.88
440    581104.55    3435325.29
440    581104.39    3435325.08
440    581104.28    3435324.95
440    581102.88    3435323.05
440    581101.41    3435320.81
440    581100.51    3435319.23
440    581099.99    3435318.03
440    581099.95    3435317.91
440    581099.58    3435316.59
440    581099.22    3435314.48
440    581098.92    3435311.95
440    581098.91    3435311.82
440    581098.89    3435311.69
440    581098.66    3435308.60
440    581098.68    3435306.98
440    581085.31    3435316.42
440    581073.57    3435346.10
440    581071.49    3435361.15
440    581102.19    3435366.03
440    581107.68    3435328.52
441    580563.26    3435511.61
441    580562.21    3435486.41
441    580555.27    3435482.79
441    580539.23    3435485.91
441    580515.11    3435502.22
441    580509.42    3435510.58
441    580563.12    3435511.71
441    580563.26    3435511.61
442    580446.16    3435310.36
442    580413.76    3435307.49
442    580413.19    3435307.98
442    580408.41    3435368.99
442    580428.15    3435383.17
442    580439.85    3435390.18
442    580446.16    3435310.36
443    581067.98    3434971.12
443    581041.15    3434969.52
443    581036.01    3434968.88
443    581047.96    3434995.88
443    581055.29    3435007.29
443    581067.71    3435001.59
443    581077.39    3434992.98
443    581077.01    3434991.10
443    581076.72    3434989.41
443    581075.76    3434982.73
443    581075.61    3434981.52
443    581075.12    3434976.29
443    581070.88    3434974.38
443    581067.98    3434971.12
444    581003.96    3435852.26
444    580989.14    3435842.80
444    580988.28    3435844.07
444    580985.06    3435848.55
444    580982.06    3435852.50
444    580980.35    3435854.65
444    580980.00    3435855.08
444    580979.71    3435855.44
444    580976.72    3435858.93
444    580973.33    3435862.67
444    580969.85    3435866.33
444    580966.59    3435869.56
444    580966.41    3435869.73
444    580979.25    3435883.66
444    580980.42    3435884.49
444    581003.96    3435852.26
445    580791.68    3435625.32
445    580794.23    3435606.31
445    580782.73    3435592.42
445    580712.62    3435594.04
445    580726.58    3435612.29
445    580753.13    3435632.28
445    580772.27    3435639.44
445    580772.52    3435639.44
445    580792.80    3435645.14
445    580791.68    3435625.32
446    581295.52    3435380.79
446    581245.25    3435382.54
446    581242.89    3435392.62
446    581243.34    3435395.46
446    581243.69    3435399.74
446    581243.94    3435400.86
446    581244.27    3435401.71
446    581244.42    3435401.98
446    581244.93    3435402.70
446    581245.55    3435403.34
446    581246.33    3435403.92
446    581247.11    3435404.33
446    581247.60    3435404.52
446    581248.63    3435404.72
446    581249.08    3435404.73
446    581249.90    3435404.74
446    581251.41    3435404.53
446    581253.83    3435403.93
446    581256.24    3435403.34
446    581257.75    3435403.14
446    581257.97    3435403.13
446    581258.18    3435403.13
446    581258.35    3435403.13
446    581259.52    3435403.24
446    581260.83    3435403.56
446    581262.12    3435404.03
446    581263.71    3435404.80
446    581265.60    3435405.90
446    581266.22    3435406.29
446    581266.39    3435406.40
446    581268.39    3435407.78
446    581269.94    3435409.03
446    581271.05    3435410.08
446    581271.88    3435411.05
446    581272.45    3435411.93
446    581272.82    3435412.70
446    581272.88    3435412.85
446    581272.96    3435413.10
446    581273.17    3435414.10
446    581273.22    3435415.42
446    581273.21    3435415.50
446    581287.92    3435420.79
446    581295.52    3435380.79
447    580416.01    3435451.11
447    580427.95    3435416.01
447    580411.04    3435420.80
447    580369.83    3435438.18
447    580375.03    3435468.41
447    580416.01    3435451.11
448    580821.22    3434978.95
448    580745.13    3434999.94
448    580743.14    3435002.52
448    580824.78    3435008.93
448    580821.22    3434978.95
449    580989.72    3434835.78
449    580981.87    3434824.63
449    580979.93    3434816.46
449    580969.73    3434814.51
449    580957.33    3434810.16
449    580968.37    3434839.42
449    580984.47    3434840.28
449    580989.72    3434835.78
450    581280.28    3435456.66
450    581275.02    3435453.64
450    581254.64    3435487.75
450    581257.03    3435489.63
450    581257.48    3435489.10
450    581261.14    3435484.64
450    581263.91    3435481.11
450    581264.10    3435480.85
450    581264.32    3435480.56
450    581267.57    3435476.12
450    581271.34    3435470.71
450    581274.39    3435466.13
450    581274.59    3435465.83
450    581274.80    3435465.49
450    581278.41    3435459.74
450    581280.28    3435456.66
451    580542.22    3435286.02
451    580522.83    3435262.68
451    580516.59    3435258.49
451    580512.43    3435315.34
451    580544.07    3435318.67
451    580542.22    3435286.02
452    580641.02    3435560.96
452    580606.60    3435550.28
452    580563.80    3435550.94
452    580561.69    3435552.69
452    580563.33    3435570.60
452    580601.78    3435572.89
452    580641.02    3435560.96
453    580594.15    3435443.29
453    580601.59    3435432.23
453    580561.52    3435431.14
453    580553.90    3435437.19
453    580561.89    3435446.88
453    580594.15    3435443.29
454    580915.96    3435591.02
454    580790.00    3435587.07
454    580782.73    3435592.42
454    580794.23    3435606.31
454    580921.84    3435606.83
454    580922.87    3435594.11
454    580915.96    3435591.02
455    581337.67    3434900.10
455    581352.96    3434872.67
455    581356.88    3434859.55
455    581248.88    3434907.73
455    581254.77    3434914.20
455    581278.23    3434925.31
455    581337.67    3434900.10
456    581288.89    3435421.53
456    581287.92    3435420.79
456    581273.21    3435415.50
456    581273.08    3435416.79
456    581272.71    3435418.48
456    581272.09    3435420.49
456    581270.99    3435423.41
456    581269.59    3435426.89
456    581269.45    3435427.23
456    581267.73    3435431.88
456    581264.97    3435439.55
456    581263.70    3435442.66
456    581263.57    3435442.97
456    581263.23    3435443.71
456    581262.26    3435445.68
456    581268.93    3435449.39
456    581288.89    3435421.53
457    580626.17    3435676.89
457    580627.34    3435619.61
457    580613.91    3435627.32
457    580607.10    3435635.71
457    580607.37    3435671.94
457    580617.10    3435678.29
457    580626.17    3435676.89
458    580462.69    3435619.40
458    580434.01    3435582.80
458    580364.65    3435611.82
458    580368.07    3435617.50
458    580371.55    3435625.98
458    580380.21    3435632.67
458    580384.62    3435638.38
458    580390.70    3435643.07
458    580388.35    3435651.11
458    580462.69    3435619.40
459    580744.09    3435320.58
459    580746.85    3435283.91
459    580716.34    3435247.85
459    580709.54    3435331.48
459    580710.31    3435332.52
459    580742.78    3435334.51
459    580744.09    3435320.58
460    580340.45    3434451.40
460    580338.86    3434447.64
460    580261.68    3434438.03
460    580248.43    3434437.11
460    580227.00    3434436.28
460    580198.75    3434431.94
460    580189.22    3434447.62
460    580280.81    3434455.32
460    580336.10    3434462.33
460    580340.45    3434451.40
461    581085.97    3435637.76
461    581074.79    3435628.86
461    581071.77    3435626.61
461    581056.09    3435662.43
461    581068.09    3435668.72
461    581068.22    3435668.44
461    581068.74    3435667.68
461    581069.34    3435667.05
461    581069.37    3435667.01
461    581070.42    3435666.16
461    581070.44    3435666.15
461    581070.57    3435666.03
461    581071.28    3435665.28
461    581072.12    3435664.17
461    581073.35    3435662.23
461    581074.86    3435659.80
461    581075.49    3435658.93
461    581075.56    3435658.85
461    581077.72    3435656.24
461    581078.28    3435655.34
461    581078.44    3435655.00
461    581078.48    3435654.90
461    581078.74    3435653.96
461    581078.92    3435652.52
461    581079.17    3435649.67
461    581079.21    3435649.45
461    581079.23    3435649.36
461    581079.55    3435648.11
461    581080.08    3435646.75
461    581080.73    3435645.44
461    581080.82    3435645.28
461    581080.87    3435645.20
461    581080.93    3435645.11
461    581081.89    3435643.69
461    581083.96    3435640.94
461    581084.02    3435640.86
461    581084.12    3435640.71
461    581085.39    3435638.76
461    581085.97    3435637.76
462    580486.18    3435398.34
462    580492.67    3435392.85
462    580506.82    3435376.13
462    580511.72    3435315.94
462    580479.20    3435313.02
462    580471.78    3435395.98
462    580485.89    3435398.35
462    580486.18    3435398.34
463    580558.02    3435288.09
463    580542.22    3435286.02
463    580544.07    3435318.67
463    580558.02    3435330.45
463    580560.95    3435330.54
463    580558.02    3435288.09
464    580710.67    3435538.04
464    580714.89    3435532.78
464    580715.53    3435408.11
464    580699.57    3435404.60
464    580686.62    3435405.67
464    580685.81    3435561.63
464    580710.67    3435538.04
465    580574.29    3435267.66
465    580567.07    3435256.29
465    580550.24    3435265.19
465    580562.39    3435269.84
465    580568.20    3435270.33
465    580574.29    3435267.66
466    580792.22    3435815.42
466    580795.68    3435808.20
466    580722.22    3435792.94
466    580731.04    3435820.29
466    580734.09    3435825.30
466    580792.22    3435815.42
467    580796.14    3435807.77
467    580791.52    3435790.66
467    580719.75    3435786.83
467    580722.22    3435792.94
467    580795.68    3435808.20
467    580796.14    3435807.77
468    581324.21    3435313.71
468    581331.40    3435290.88
468    581320.87    3435287.23
468    581285.86    3435301.35
468    581321.85    3435313.73
468    581324.21    3435313.71
469    580565.44    3435783.19
469    580593.21    3435751.34
469    580582.63    3435743.13
469    580559.21    3435731.83
469    580498.38    3435717.91
469    580501.09    3435733.21
469    580508.78    3435762.42
469    580527.22    3435805.04
469    580532.38    3435803.57
469    580549.22    3435801.41
469    580565.44    3435783.19
470    580592.94    3435619.57
470    580576.93    3435608.43
470    580561.25    3435608.43
470    580564.14    3435623.37
470    580592.94    3435619.57
471    581352.96    3434872.67
471    581337.67    3434900.10
471    581318.25    3434933.27
471    581329.75    3434948.24
471    581373.39    3434975.44
471    581377.27    3434975.84
471    581352.96    3434872.67
472    581097.97    3435603.54
472    581094.86    3435599.99
472    581094.82    3435599.97
472    581071.01    3435626.01
472    581071.77    3435626.61
472    581074.79    3435628.86
472    581097.97    3435603.54
473    580343.13    3434497.13
473    580334.09    3434488.13
473    580247.69    3434481.11
473    580193.36    3434477.04
473    580192.59    3434483.24
473    580178.63    3434481.50
473    580158.22    3434484.04
473    580143.22    3434481.62
473    580134.48    3434482.69
473    580126.62    3434492.87
473    580103.63    3434496.67
473    580099.58    3434502.74
473    580099.00    3434519.70
473    580193.31    3434517.62
473    580321.83    3434532.33
473    580343.13    3434497.13
474    581452.26    3435040.84
474    581465.09    3435027.98
474    581442.45    3435015.71
474    581344.96    3435022.63
474    581341.41    3435025.03
474    581345.18    3435054.22
474    581347.44    3435054.78
474    581452.26    3435040.84
475    581401.48    3435116.23
475    581414.34    3435079.06
475    581347.55    3435084.15
475    581347.48    3435084.19
475    581354.19    3435132.26
475    581362.28    3435128.75
475    581401.48    3435116.23
476    580531.64    3435112.90
476    580534.90    3435107.19
476    580540.99    3435032.20
476    580534.71    3435018.37
476    580511.56    3434992.87
476    580508.45    3434993.11
476    580496.40    3435141.35
476    580531.64    3435112.90
477    580639.50    3435681.27
477    580626.17    3435676.89
477    580617.10    3435678.29
477    580618.02    3435755.30
477    580620.46    3435756.09
477    580640.51    3435758.69
477    580639.50    3435681.27
478    580726.85    3435675.16
478    580726.58    3435612.29
478    580712.62    3435594.04
478    580680.87    3435569.99
478    580681.13    3435652.62
478    580683.61    3435672.33
478    580698.79    3435678.86
478    580726.85    3435675.16
479    580793.40    3435726.05
479    580794.24    3435705.67
479    580788.13    3435700.96
479    580773.85    3435701.62
479    580752.95    3435718.14
479    580748.08    3435725.28
479    580793.18    3435726.22
479    580793.40    3435726.05
480    580657.99    3435182.46
480    580666.66    3435184.40
480    580671.04    3435178.95
480    580659.53    3435164.74
480    580649.62    3435156.19
480    580491.63    3435147.34
480    580456.10    3435176.56
480    580479.84    3435174.68
480    580482.27    3435189.94
480    580494.31    3435192.81
480    580500.47    3435196.06
480    580533.80    3435198.97
480    580557.73    3435203.13
480    580565.09    3435202.84
480    580585.16    3435203.64
480    580586.34    3435199.93
480    580594.55    3435198.83
480    580611.05    3435194.41
480    580630.71    3435195.58
480    580638.91    3435191.13
480    580657.16    3435189.81
480    580657.99    3435182.46
481    580250.25    3435118.27
481    580241.64    3435110.58
481    580232.23    3435107.38
481    580233.46    3435102.65
481    580229.85    3435101.56
481    580229.42    3435101.96
481    580229.33    3435102.20
481    580229.03    3435102.36
481    580228.28    3435102.13
481    580223.47    3435100.64
481    580223.84    3435099.68
481    580220.21    3435098.45
481    580217.21    3435097.47
481    580217.07    3435097.43
481    580214.39    3435096.59
481    580210.66    3435095.39
481    580210.53    3435095.34
481    580210.48    3435095.32
481    580209.09    3435094.83
481    580207.95    3435094.54
481    580207.87    3435094.53
481    580207.84    3435094.53
481    580206.98    3435094.46
481    580205.96    3435094.55
481    580205.88    3435094.57
481    580205.83    3435094.58
481    580205.51    3435094.66
481    580205.15    3435094.79
481    580204.47    3435095.03
481    580204.41    3435095.06
481    580204.34    3435095.09
481    580203.94    3435095.29
481    580202.64    3435096.04
481    580201.42    3435096.92
481    580201.35    3435096.97
481    580201.27    3435097.04
481    580200.52    3435097.69
481    580199.13    3435099.08
481    580197.97    3435100.42
481    580197.91    3435100.51
481    580197.88    3435100.54
481    580197.63    3435100.87
481    580196.56    3435102.47
481    580196.53    3435102.52
481    580196.44    3435102.66
481    580194.59    3435105.90
481    580194.54    3435106.00
481    580193.71    3435108.10
481    580193.42    3435109.58
481    580193.35    3435112.67
481    580193.34    3435113.17
481    580193.31    3435113.19
481    580212.35    3435150.13
481    580256.06    3435142.76
481    580276.80    3435139.25
481    580278.36    3435128.24
481    580253.14    3435119.33
481    580253.27    3435122.08
481    580250.25    3435118.27
482    580876.54    3435343.10
482    580881.66    3435256.08
482    580874.34    3435260.82
482    580849.96    3435281.38
482    580847.17    3435285.65
482    580841.13    3435343.07
482    580876.54    3435343.10
483    580890.92    3435198.97
483    580894.87    3435196.82
483    580909.07    3435197.71
483    580892.95    3435175.39
483    580889.40    3435172.36
483    580808.55    3435169.55
483    580802.88    3435181.33
483    580803.80    3435200.99
483    580822.60    3435203.20
483    580827.76    3435208.97
483    580832.24    3435207.06
483    580838.84    3435202.45
483    580855.38    3435203.44
483    580890.92    3435198.97
484    581073.26    3435126.55
484    581049.88    3435124.48
484    581025.26    3435150.24
484    581074.41    3435153.31
484    581073.26    3435126.55
485    580278.46    3435150.91
485    580270.73    3435157.57
485    580275.27    3435188.15
485    580349.87    3435171.54
485    580340.59    3435160.38
485    580336.36    3435158.54
485    580330.90    3435143.21
485    580326.14    3435140.28
485    580316.29    3435148.44
485    580296.42    3435146.42
485    580294.97    3435151.36
485    580288.75    3435153.24
485    580285.89    3435156.55
485    580282.23    3435154.51
485    580280.82    3435153.72
485    580278.46    3435150.91
486    580671.50    3435005.33
486    580664.41    3434999.51
486    580591.70    3434993.30
486    580591.41    3434993.39
486    580589.34    3435023.19
486    580638.65    3435031.50
486    580671.50    3435005.33
487    580562.92    3435677.34
487    580562.82    3435663.75
487    580557.14    3435653.21
487    580548.42    3435653.09
487    580548.46    3435676.85
487    580559.16    3435680.89
487    580562.92    3435677.34
488    580729.06    3435521.35
488    580744.69    3435503.29
488    580745.72    3435501.23
488    580744.97    3435429.67
488    580740.85    3435422.92
488    580725.79    3435407.73
488    580715.53    3435408.11
488    580714.89    3435532.78
488    580729.06    3435521.35
489    580790.37    3435502.14
489    580795.34    3435490.31
489    580787.26    3435477.73
489    580773.22    3435477.81
489    580745.72    3435501.23
489    580744.69    3435503.29
489    580790.37    3435502.14
490    580486.24    3435520.47
490    580485.89    3435398.35
490    580471.78    3435395.98
490    580455.05    3435397.21
490    580456.91    3435504.68
490    580473.27    3435525.00
490    580486.24    3435520.47
491    581050.53    3435738.56
491    581030.73    3435737.13
491    581030.50    3435737.12
491    581034.23    3435777.24
491    581045.58    3435777.84
491    581045.62    3435777.43
491    581045.95    3435775.33
491    581046.09    3435774.70
491    581046.14    3435774.50
491    581046.18    3435774.36
491    581046.75    3435772.62
491    581048.24    3435768.63
491    581048.45    3435767.95
491    581048.48    3435767.81
491    581048.53    3435767.63
491    581048.88    3435765.79
491    581049.19    3435762.98
491    581049.44    3435758.82
491    581049.45    3435758.45
491    581049.46    3435758.19
491    581049.58    3435746.74
491    581049.62    3435745.98
491    581049.64    3435745.73
491    581049.65    3435745.53
491    581050.00    3435742.18
491    581050.53    3435738.56
492    580381.67    3435290.32
492    580386.70    3435230.54
492    580377.93    3435240.39
492    580370.94    3435231.19
492    580366.71    3435229.36
492    580364.87    3435225.12
492    580362.66    3435223.29
492    580349.49    3435243.59
492    580340.64    3435282.18
492    580381.62    3435290.77
492    580381.67    3435290.32
493    580469.95    3434805.62
493    580455.09    3434987.10
493    580472.03    3434990.52
493    580485.71    3434989.58
493    580498.15    3434868.11
493    580498.08    3434867.87
493    580498.03    3434867.65
493    580497.98    3434867.46
493    580497.92    3434867.16
493    580497.64    3434865.04
493    580497.49    3434862.28
493    580497.50    3434858.26
493    580497.71    3434854.24
493    580497.89    3434852.40
493    580497.93    3434852.10
493    580497.97    3434851.81
493    580498.46    3434848.92
493    580499.63    3434843.48
493    580500.00    3434841.78
493    580500.82    3434838.03
493    580500.88    3434837.74
493    580500.93    3434837.44
493    580501.70    3434832.99
493    580502.26    3434828.82
493    580502.49    3434825.84
493    580502.49    3434823.77
493    580502.41    3434822.80
493    580502.11    3434820.99
493    580501.60    3434818.84
493    580500.97    3434816.11
493    580500.78    3434814.60
493    580500.76    3434814.12
493    580500.84    3434812.78
493    580501.10    3434811.33
493    580501.56    3434809.78
493    580502.66    3434807.08
493    580502.82    3434806.35
493    580502.80    3434805.80
493    580502.57    3434805.09
493    580502.12    3434803.91
493    580502.08    3434803.69
493    580502.09    3434803.01
493    580502.33    3434802.14
493    580502.87    3434800.68
493    580502.89    3434800.62
493    580502.92    3434800.52
493    580503.17    3434799.42
493    580503.21    3434798.98
493    580494.65    3434790.42
493    580474.25    3434787.75
493    580469.95    3434805.62
494    581335.50    3434787.90
494    581328.54    3434783.88
494    581290.78    3434769.84
494    581280.72    3434769.01
494    581199.91    3434804.90
494    581183.22    3434838.63
494    581177.78    3434858.98
494    581335.50    3434787.90
495    580889.88    3435706.27
495    580794.24    3435705.67
495    580793.40    3435726.05
495    580885.70    3435726.16
495    580885.69    3435726.16
495    580887.95    3435721.64
495    580889.15    3435718.61
495    580890.50    3435713.54
495    580890.23    3435711.39
495    580889.84    3435707.25
495    580889.88    3435706.27
496    580698.79    3435678.86
496    580683.61    3435672.33
496    580669.20    3435674.22
496    580668.97    3435764.29
496    580669.44    3435764.44
496    580699.19    3435764.65
496    580698.79    3435678.86
497    580237.45    3435090.61
497    580238.29    3435088.57
497    580243.43    3435090.44
497    580251.92    3435093.53
497    580251.86    3435092.36
497    580279.36    3435094.64
497    580286.86    3435053.37
497    580206.21    3435013.59
497    580193.31    3435060.82
497    580197.52    3435073.54
497    580200.17    3435077.38
497    580202.93    3435080.10
497    580206.11    3435082.79
497    580208.20    3435084.01
497    580212.01    3435085.51
497    580226.66    3435089.99
497    580227.27    3435089.00
497    580232.20    3435090.75
497    580236.80    3435092.20
497    580237.45    3435090.61
498    580911.09    3435927.83
498    580910.37    3435924.53
498    580909.78    3435922.07
498    580908.55    3435919.45
498    580869.06    3435927.52
498    580869.05    3435928.01
498    580911.09    3435927.83
499    580725.79    3435407.73
499    580732.10    3435401.93
499    580738.32    3435393.45
499    580743.60    3435335.48
499    580742.78    3435334.51
499    580710.31    3435332.52
499    580699.57    3435404.60
499    580715.53    3435408.11
499    580725.79    3435407.73
500    581345.18    3435054.22
500    581341.41    3435025.03
500    581251.64    3435041.69
500    581276.16    3435064.01
500    581345.18    3435054.22
501    580801.77    3435441.23
501    580789.69    3435422.59
501    580740.85    3435422.92
501    580744.97    3435429.67
501    580770.78    3435448.00
501    580791.54    3435448.02
501    580801.77    3435441.23
502    580355.98    3434604.24
502    580321.05    3434599.98
502    580320.15    3434600.81
502    580317.49    3434629.62
502    580366.42    3434635.21
502    580365.26    3434630.53
502    580356.57    3434618.31
502    580355.98    3434604.24
503    580946.05    3435228.58
503    580924.88    3435224.87
503    580917.24    3435225.68
503    580908.45    3435341.99
503    580926.01    3435346.79
503    580932.34    3435347.63
503    580940.77    3435349.29
503    580946.05    3435228.58
504    580908.45    3435341.99
504    580886.70    3435340.24
504    580876.54    3435343.10
504    580868.51    3435427.40
504    580876.27    3435439.38
504    580899.33    3435460.13
504    580908.45    3435341.99
505    580562.63    3435330.74
505    580560.95    3435330.54
505    580558.02    3435330.45
505    580516.40    3435370.74
505    580562.08    3435371.58
505    580562.63    3435330.74
506    580576.92    3435511.23
506    580563.26    3435511.61
506    580563.12    3435511.71
506    580562.72    3435530.92
506    580577.31    3435531.17
506    580576.92    3435511.23
507    581232.07    3435349.46
507    581231.93    3435347.88
507    581231.43    3435345.50
507    581230.17    3435343.49
507    581227.59    3435341.29
507    581224.95    3435339.08
507    581224.90    3435339.06
507    581223.96    3435338.37
507    581223.62    3435338.02
507    581223.59    3435337.98
507    581223.54    3435337.93
507    581223.17    3435337.37
507    581222.77    3435336.46
507    581222.08    3435334.63
507    581222.01    3435334.49
507    581221.96    3435334.39
507    581221.41    3435333.57
507    581220.61    3435332.66
507    581219.54    3435331.68
507    581218.48    3435330.89
507    581218.11    3435330.65
507    581218.03    3435330.60
507    581216.77    3435329.96
507    581214.07    3435328.79
507    581212.80    3435329.03
507    581212.77    3435328.99
507    581212.36    3435328.71
507    581212.31    3435328.68
507    581212.27    3435328.67
507    581212.23    3435328.64
507    581211.56    3435328.43
507    581211.11    3435328.35
507    581211.10    3435328.35
507    581210.83    3435328.31
507    581209.21    3435328.24
507    581206.50    3435328.36
507    581199.46    3435329.03
507    581197.83    3435329.20
507    581197.56    3435329.23
507    581197.42    3435329.24
507    581190.20    3435329.97
507    581190.06    3435329.98
507    581186.76    3435330.41
507    581185.01    3435330.79
507    581183.83    3435331.21
507    581183.58    3435331.33
507    581183.45    3435331.39
507    581183.40    3435331.42
507    581182.95    3435331.73
507    581182.91    3435331.76
507    581182.89    3435331.78
507    581182.86    3435331.82
507    581182.65    3435332.18
507    581182.54    3435332.77
507    581182.52    3435333.85
507    581182.52    3435333.87
507    581182.52    3435334.00
507    581182.38    3435335.74
507    581181.98    3435338.93
507    581181.95    3435339.79
507    581181.96    3435339.92
507    581181.96    3435339.99
507    581182.03    3435342.17
507    581181.90    3435342.85
507    581181.66    3435343.33
507    581181.58    3435343.44
507    581181.55    3435343.48
507    581181.20    3435343.77
507    581181.19    3435343.78
507    581181.11    3435343.83
507    581180.55    3435344.07
507    581179.77    3435344.20
507    581178.56    3435344.17
507    581176.74    3435343.98
507    581176.65    3435343.98
507    581176.57    3435343.97
507    581173.93    3435343.87
507    581173.11    3435343.67
507    581172.83    3435343.55
507    581172.76    3435343.51
507    581172.71    3435343.49
507    581172.30    3435343.20
507    581172.11    3435342.96
507    581172.10    3435342.96
507    581172.08    3435342.91
507    581171.84    3435342.28
507    581171.77    3435342.11
507    581168.34    3435370.22
507    581201.06    3435373.14
507    581223.48    3435372.59
507    581226.64    3435358.76
507    581227.22    3435358.83
507    581227.29    3435356.64
507    581229.07    3435355.48
507    581230.76    3435353.96
507    581231.59    3435352.71
507    581231.87    3435352.02
507    581232.17    3435350.51
507    581232.07    3435349.46
508    581204.06    3435542.62
508    581200.25    3435537.42
508    581199.78    3435536.83
508    581175.64    3435555.89
508    581176.31    3435556.94
508    581176.37    3435557.07
508    581176.81    3435557.67
508    581177.25    3435558.06
508    581177.34    3435558.12
508    581177.41    3435558.17
508    581177.91    3435558.42
508    581178.56    3435558.54
508    581179.49    3435558.51
508    581180.59    3435558.27
508    581181.91    3435557.80
508    581182.43    3435557.56
508    581182.54    3435557.51
508    581183.93    3435556.77
508    581185.53    3435555.73
508    581186.96    3435554.71
508    581187.25    3435554.51
508    581195.17    3435548.94
508    581201.42    3435544.55
508    581201.72    3435544.34
508    581202.03    3435544.11
508    581204.06    3435542.62
509    580756.41    3435381.96
509    580774.66    3435358.70
509    580776.33    3435337.73
509    580743.60    3435335.48
509    580738.32    3435393.45
509    580756.41    3435381.96
510    581271.60    3435451.71
510    581268.93    3435449.39
510    581262.26    3435445.68
510    581261.78    3435446.66
510    581259.82    3435450.30
510    581256.51    3435456.07
510    581251.36    3435464.68
510    581246.52    3435472.50
510    581243.33    3435477.39
510    581242.86    3435478.08
510    581242.59    3435478.47
510    581249.90    3435484.21
510    581250.43    3435484.47
510    581271.60    3435451.71
511    580651.08    3435245.53
511    580629.61    3435243.32
511    580616.00    3435266.98
511    580611.08    3435323.37
511    580611.90    3435324.31
511    580644.09    3435326.00
511    580651.08    3435245.53
512    581068.09    3435668.72
512    581056.09    3435662.43
512    581051.19    3435660.08
512    581050.36    3435659.87
512    581041.39    3435698.70
512    581054.69    3435702.45
512    581054.89    3435701.58
512    581055.46    3435699.91
512    581055.49    3435699.83
512    581055.53    3435699.74
512    581055.61    3435699.55
512    581056.64    3435697.27
512    581059.99    3435690.58
512    581060.07    3435690.39
512    581060.17    3435690.19
512    581061.52    3435686.95
512    581063.76    3435681.44
512    581064.21    3435680.44
512    581064.31    3435680.24
512    581064.37    3435680.11
512    581066.40    3435676.04
512    581066.95    3435674.61
512    581067.17    3435673.80
512    581067.18    3435673.71
512    581067.37    3435672.16
512    581067.59    3435670.15
512    581067.83    3435669.27
512    581067.85    3435669.22
512    581068.09    3435668.72
513    580274.67    3435188.81
513    580275.27    3435188.15
513    580270.73    3435157.57
513    580258.36    3435159.42
513    580258.35    3435159.42
513    580245.53    3435161.07
513    580252.30    3435192.98
513    580274.67    3435188.81
514    580564.26    3435461.41
514    580561.89    3435446.88
514    580553.90    3435437.19
514    580532.37    3435437.88
514    580539.20    3435452.24
514    580560.71    3435464.54
514    580564.26    3435461.41
515    580867.46    3435042.90
515    580862.64    3435044.94
515    580829.28    3435075.97
515    580826.49    3435105.93
515    580844.60    3435134.57
515    580848.13    3435137.27
515    580859.58    3435142.57
515    580867.46    3435042.90
516    581295.52    3435380.79
516    581306.37    3435375.74
516    581308.19    3435361.83
516    581283.31    3435335.30
516    581258.02    3435362.56
516    581248.67    3435365.53
516    581244.82    3435376.50
516    581245.25    3435382.54
516    581295.52    3435380.79
517    580512.43    3435315.34
517    580516.59    3435258.49
517    580501.36    3435228.25
517    580487.08    3435224.24
517    580479.10    3435312.91
517    580479.20    3435313.02
517    580511.72    3435315.94
517    580512.43    3435315.34
518    581036.01    3434968.88
518    581033.91    3434964.71
518    581030.76    3434943.18
518    580929.69    3434981.28
518    580932.20    3434996.20
518    580939.79    3435002.20
518    581036.01    3434968.88
519    581068.21    3435624.60
519    581052.07    3435611.85
519    581051.08    3435612.94
519    581048.59    3435615.85
519    581046.70    3435618.26
519    581046.55    3435618.47
519    581046.46    3435618.59
519    581046.37    3435618.71
519    581044.67    3435621.19
519    581042.50    3435624.63
519    581042.42    3435624.76
519    581042.23    3435625.08
519    581039.65    3435629.51
519    581036.27    3435635.59
519    581033.71    3435640.45
519    581033.55    3435640.77
519    581033.36    3435641.14
519    581032.81    3435642.25
519    581030.16    3435647.86
519    581029.22    3435649.97
519    581046.28    3435658.75
519    581050.36    3435659.87
519    581051.19    3435660.08
519    581068.21    3435624.60
520    581030.79    3435777.04
520    581024.77    3435737.29
520    581010.27    3435736.40
520    581010.45    3435742.23
520    581010.46    3435742.48
520    581010.47    3435742.77
520    581011.27    3435756.49
520    581011.28    3435756.78
520    581011.30    3435757.11
520    581011.33    3435757.76
520    581011.79    3435772.88
520    581011.80    3435773.21
520    581011.86    3435776.19
520    581029.29    3435777.26
520    581030.79    3435777.04
521    580471.78    3435395.98
521    580479.20    3435313.02
521    580479.10    3435312.91
521    580446.37    3435310.19
521    580446.16    3435310.36
521    580439.85    3435390.18
521    580445.33    3435395.76
521    580455.05    3435397.21
521    580471.78    3435395.98
522    580779.03    3435335.36
522    580774.33    3435319.50
522    580744.09    3435320.58
522    580742.78    3435334.51
522    580743.60    3435335.48
522    580776.33    3435337.73
522    580779.03    3435335.36
523    580577.73    3434936.51
523    580582.11    3434884.42
523    580578.90    3434886.07
523    580571.99    3434889.37
523    580569.21    3434890.65
523    580569.04    3434890.73
523    580565.00    3434892.48
523    580562.50    3434893.43
523    580560.50    3434894.04
523    580560.32    3434894.08
523    580560.16    3434894.12
523    580558.09    3434894.51
523    580555.17    3434894.83
523    580552.50    3434895.02
523    580547.32    3434960.04
523    580577.73    3434936.51
524    580275.91    3434963.88
524    580268.93    3434963.06
524    580232.83    3434958.84
524    580218.54    3435003.63
524    580263.82    3435007.64
524    580280.18    3435009.10
524    580275.91    3434963.88
525    580163.41    3434977.97
525    580163.56    3434984.89
525    580182.61    3434986.94
525    580182.62    3434986.96
525    580183.34    3434991.08
525    580183.43    3434991.79
525    580183.44    3434991.89
525    580183.47    3434992.17
525    580183.71    3434995.30
525    580183.92    3435000.02
525    580184.08    3435003.57
525    580184.33    3435005.85
525    580184.38    3435006.13
525    580184.41    3435006.29
525    580184.99    3435008.94
525    580185.52    3435011.41
525    580185.67    3435012.79
525    580185.64    3435013.70
525    580185.62    3435013.85
525    580185.60    3435013.98
525    580185.33    3435015.04
525    580184.75    3435016.48
525    580183.67    3435018.95
525    580183.32    3435020.14
525    580183.27    3435020.41
525    580183.24    3435020.57
525    580183.20    3435021.70
525    580183.35    3435023.17
525    580183.78    3435025.32
525    580184.59    3435028.62
525    580184.63    3435028.80
525    580186.35    3435036.50
525    580186.59    3435037.57
525    580186.66    3435037.87
525    580188.78    3435047.11
525    580192.68    3435058.89
525    580193.31    3435060.82
525    580206.21    3435013.59
525    580218.54    3435003.63
525    580223.67    3434987.55
525    580163.41    3434977.97
526    580163.41    3434977.97
526    580223.67    3434987.55
526    580232.83    3434958.84
526    580232.54    3434927.36
526    580227.15    3434921.75
526    580224.67    3434919.07
526    580225.43    3434899.89
526    580225.71    3434892.71
526    580222.54    3434871.42
526    580211.05    3434868.68
526    580215.09    3434861.05
526    580217.03    3434852.28
526    580208.28    3434835.75
526    580190.23    3434838.89
526    580180.23    3434828.10
526    580178.92    3434825.32
526    580176.02    3434819.18
526    580159.66    3434804.02
526    580156.13    3434793.45
526    580160.91    3434778.37
526    580170.76    3434776.02
526    580173.57    3434772.99
526    580169.16    3434765.24
526    580206.82    3434768.16
526    580197.29    3434755.30
526    580199.01    3434743.66
526    580204.25    3434737.17
526    580207.28    3434733.42
526    580225.29    3434729.62
526    580235.15    3434721.26
526    580239.46    3434719.50
526    580240.77    3434711.81
526    580241.22    3434709.12
526    580244.48    3434703.72
526    580256.27    3434683.80
526    580193.31    3434676.73
526    580185.07    3434670.36
526    580183.01    3434644.80
526    580196.99    3434641.62
526    580202.83    3434638.36
526    580209.05    3434636.49
526    580209.99    3434635.40
526    580208.67    3434617.13
526    580207.40    3434599.54
526    580196.99    3434600.16
526    580192.85    3434597.91
526    580184.64    3434596.00
526    580179.65    3434593.29
526    580152.02    3434600.69
526    580135.39    3434594.72
526    580107.81    3434591.49
526    580106.80    3434564.58
526    580104.09    3434563.24
526    580095.34    3434561.88
526    580092.63    3434560.54
526    580078.86    3434561.01
526    580078.77    3434655.03
526    580079.58    3434655.03
526    580079.99    3434655.07
526    580080.09    3434655.09
526    580080.14    3434655.10
526    580080.82    3434655.31
526    580081.30    3434655.59
526    580081.56    3434655.83
526    580081.57    3434655.84
526    580081.60    3434655.88
526    580082.28    3434656.82
526    580082.55    3434656.99
526    580082.60    3434657.00
526    580082.62    3434657.01
526    580082.66    3434657.01
526    580083.06    3434656.97
526    580083.26    3434656.90
526    580083.27    3434656.89
526    580083.31    3434656.87
526    580083.65    3434656.58
526    580084.06    3434656.00
526    580084.30    3434655.60
526    580084.30    3434655.60
526    580084.34    3434655.54
526    580084.87    3434654.92
526    580085.64    3434654.24
526    580086.67    3434653.54
526    580087.12    3434653.28
526    580087.28    3434653.19
526    580088.76    3434652.52
526    580091.99    3434651.30
526    580095.60    3434650.00
526    580095.68    3434649.97
526    580097.80    3434649.23
526    580098.91    3434649.00
526    580099.53    3434648.98
526    580099.58    3434648.99
526    580101.02    3434649.17
526    580101.04    3434649.17
526    580101.10    3434649.17
526    580101.56    3434649.09
526    580101.72    3434648.99
526    580101.73    3434648.99
526    580101.76    3434648.96
526    580101.96    3434648.61
526    580101.97    3434648.59
526    580101.99    3434648.54
526    580102.19    3434647.86
526    580102.49    3434647.65
526    580102.80    3434647.52
526    580105.78    3434646.30
526    580108.28    3434645.38
526    580111.87    3434644.34
526    580112.90    3434644.05
526    580113.17    3434643.95
526    580113.58    3434643.85
526    580115.26    3434643.39
526    580119.49    3434642.80
526    580119.58    3434642.78
526    580122.74    3434642.08
526    580123.79    3434641.84
526    580123.88    3434641.82
526    580123.99    3434641.79
526    580128.39    3434641.10
526    580129.38    3434640.93
526    580130.07    3434640.82
526    580133.22    3434640.43
526    580133.59    3434640.10
526    580135.64    3434640.20
526    580136.10    3434640.21
526    580140.46    3434639.91
526    580141.29    3434639.84
526    580144.69    3434639.55
526    580146.55    3434639.42
526    580147.18    3434639.35
526    580148.43    3434638.99
526    580149.20    3434638.81
526    580149.25    3434638.79
526    580149.38    3434638.76
526    580154.71    3434637.50
526    580155.53    3434637.28
526    580156.62    3434637.02
526    580157.53    3434636.81
526    580157.55    3434636.80
526    580157.60    3434636.79
526    580158.55    3434636.70
526    580158.70    3434636.72
526    580158.72    3434636.72
526    580158.77    3434636.73
526    580159.35    3434636.90
526    580159.38    3434636.91
526    580159.43    3434636.93
526    580160.42    3434637.41
526    580160.46    3434637.42
526    580160.52    3434637.44
526    580161.25    3434637.58
526    580162.29    3434637.57
526    580163.39    3434637.37
526    580163.79    3434637.25
526    580163.85    3434637.22
526    580163.90    3434637.21
526    580164.84    3434636.75
526    580165.28    3434636.50
526    580165.29    3434636.50
526    580165.33    3434636.47
526    580166.49    3434635.98
526    580176.57    3434636.15
526    580176.52    3434643.88
526    580176.04    3434653.40
526    580176.51    3434666.15
526    580176.25    3434666.48
526    580175.77    3434666.82
526    580175.04    3434667.14
526    580174.16    3434667.40
526    580173.83    3434667.48
526    580171.59    3434667.96
526    580168.81    3434668.36
526    580163.73    3434668.84
526    580159.59    3434669.26
526    580159.29    3434669.30
526    580159.00    3434669.34
526    580158.81    3434669.37
526    580155.83    3434669.90
526    580152.28    3434670.71
526    580149.87    3434671.36
526    580149.69    3434671.42
526    580149.20    3434671.56
526    580145.33    3434672.79
526    580140.07    3434674.65
526    580133.92    3434677.00
526    580129.25    3434678.94
526    580126.49    3434680.20
526    580126.04    3434680.42
526    580125.76    3434680.56
526    580122.46    3434682.28
526    580114.29    3434686.76
526    580112.35    3434687.74
526    580112.07    3434687.87
526    580108.71    3434689.37
526    580102.74    3434691.79
526    580098.19    3434693.62
526    580093.80    3434696.64
526    580090.56    3434698.78
526    580088.38    3434695.74
526    580082.83    3434699.48
526    580079.35    3434700.59
526    580078.72    3434701.00
526    580078.72    3434705.77
526    580084.55    3434701.69
526    580085.70    3434702.77
526    580085.66    3434702.80
526    580085.11    3434703.30
526    580085.08    3434703.33
526    580085.01    3434703.39
526    580084.01    3434704.44
526    580083.12    3434705.59
526    580082.54    3434706.56
526    580082.32    3434707.07
526    580082.29    3434707.16
526    580082.26    3434707.25
526    580082.05    3434708.22
526    580081.96    3434709.83
526    580081.95    3434712.19
526    580081.95    3434712.26
526    580081.94    3434713.17
526    580082.97    3434715.12
526    580084.72    3434717.28
526    580090.53    3434725.33
526    580096.91    3434734.46
526    580106.96    3434748.68
526    580109.21    3434751.94
526    580116.80    3434760.29
526    580123.83    3434767.69
526    580126.47    3434770.15
526    580135.33    3434781.36
526    580141.17    3434792.77
526    580145.04    3434801.59
526    580149.07    3434811.94
526    580151.09    3434818.97
526    580151.58    3434821.30
526    580153.60    3434832.05
526    580154.17    3434835.54
526    580155.60    3434847.44
526    580157.19    3434854.36
526    580159.46    3434862.52
526    580161.41    3434868.88
526    580163.98    3434876.30
526    580165.38    3434880.89
526    580166.60    3434883.72
526    580167.27    3434885.23
526    580167.55    3434887.45
526    580171.04    3434896.39
526    580173.34    3434903.63
526    580174.25    3434905.90
526    580176.69    3434919.28
526    580176.86    3434919.79
526    580179.96    3434928.80
526    580183.99    3434941.56
526    580184.62    3434943.72
526    580184.60    3434946.23
526    580184.00    3434957.43
526    580183.35    3434971.40
526    580183.18    3434975.73
526    580163.32    3434973.66
526    580163.41    3434977.97
527    580474.25    3434787.75
527    580494.65    3434790.42
527    580503.21    3434798.98
527    580503.33    3434797.70
527    580503.48    3434795.68
527    580503.49    3434795.58
527    580503.51    3434795.46
527    580503.84    3434793.66
527    580504.55    3434790.43
527    580504.65    3434789.59
527    580504.67    3434789.36
527    580504.69    3434787.80
527    580504.51    3434785.77
527    580504.04    3434783.07
527    580503.26    3434779.71
527    580502.97    3434778.61
527    580502.91    3434778.38
527    580502.82    3434778.05
527    580501.42    3434773.39
527    580500.00    3434768.99
527    580497.82    3434762.21
527    580497.71    3434761.88
527    580500.00    3434761.05
527    580501.58    3434760.08
527    580505.58    3434757.86
527    580508.59    3434755.11
527    580511.36    3434751.72
527    580512.88    3434748.51
527    580513.96    3434745.49
527    580514.67    3434741.58
527    580518.02    3434741.85
527    580518.15    3434740.10
527    580515.07    3434740.05
527    580514.85    3434736.34
527    580514.13    3434733.12
527    580512.64    3434729.44
527    580515.62    3434728.20
527    580514.75    3434726.56
527    580511.82    3434727.92
527    580510.30    3434725.54
527    580508.68    3434723.69
527    580507.14    3434722.15
527    580509.23    3434719.68
527    580507.52    3434718.40
527    580500.00    3434728.35
527    580499.34    3434729.23
527    580500.00    3434729.90
527    580500.23    3434730.12
527    580505.60    3434723.99
527    580508.57    3434727.34
527    580509.56    3434728.90
527    580509.63    3434729.26
527    580502.52    3434733.22
527    580503.12    3434734.12
527    580510.38    3434730.73
527    580511.33    3434732.80
527    580511.87    3434734.71
527    580512.36    3434739.05
527    580512.41    3434739.72
527    580504.34    3434739.64
527    580504.30    3434740.66
527    580512.14    3434741.34
527    580512.05    3434742.99
527    580511.73    3434744.64
527    580510.47    3434747.92
527    580508.65    3434751.09
527    580506.02    3434754.07
527    580503.60    3434756.14
527    580501.08    3434757.60
527    580500.00    3434758.06
527    580496.94    3434759.39
527    580495.29    3434756.74
527    580492.73    3434753.14
527    580490.92    3434750.79
527    580490.87    3434750.78
527    580488.53    3434750.29
527    580487.95    3434750.11
527    580486.71    3434749.63
527    580485.48    3434748.99
527    580484.81    3434748.55
527    580483.92    3434747.79
527    580482.82    3434746.62
527    580481.88    3434745.44
527    580481.33    3434744.59
527    580480.89    3434743.63
527    580480.61    3434742.67
527    580480.55    3434742.32
527    580480.55    3434742.28
527    580480.54    3434742.23
527    580480.49    3434741.54
527    580478.46    3434738.95
527    580476.68    3434737.47
527    580476.74    3434736.77
527    580476.03    3434736.75
527    580473.93    3434735.45
527    580471.86    3434734.12
527    580468.24    3434732.53
527    580464.38    3434730.05
527    580461.14    3434728.18
527    580457.49    3434725.79
527    580455.66    3434724.49
527    580455.14    3434723.68
527    580453.94    3434723.13
527    580452.18    3434722.58
527    580450.44    3434722.04
527    580449.76    3434721.38
527    580449.29    3434720.86
527    580448.02    3434720.39
527    580446.50    3434720.41
527    580445.32    3434720.39
527    580443.13    3434718.96
527    580441.56    3434717.91
527    580440.47    3434717.55
527    580438.26    3434717.89
527    580435.47    3434717.66
527    580434.19    3434717.44
527    580432.20    3434716.30
527    580428.18    3434715.12
527    580425.08    3434714.26
527    580422.98    3434714.02
527    580419.03    3434713.03
527    580413.57    3434711.36
527    580410.30    3434710.61
527    580405.39    3434709.22
527    580403.69    3434708.80
527    580403.17    3434708.67
527    580404.10    3434707.02
527    580404.68    3434705.26
527    580404.90    3434703.37
527    580404.75    3434701.53
527    580404.22    3434699.70
527    580403.37    3434698.06
527    580402.22    3434696.61
527    580400.81    3434695.41
527    580399.14    3434694.49
527    580397.38    3434693.94
527    580395.54    3434693.73
527    580393.70    3434693.89
527    580391.92    3434694.40
527    580390.23    3434695.27
527    580388.79    3434696.43
527    580387.57    3434697.89
527    580387.40    3434697.25
527    580386.52    3434689.97
527    580386.37    3434685.78
527    580386.43    3434682.79
527    580386.83    3434680.19
527    580388.41    3434673.48
527    580390.11    3434666.28
527    580391.47    3434660.83
527    580392.62    3434655.88
527    580394.42    3434647.33
527    580395.55    3434640.86
527    580396.57    3434633.67
527    580397.49    3434627.77
527    580398.25    3434622.22
527    580398.99    3434617.05
527    580400.05    3434610.01
527    580401.00    3434603.30
527    580401.96    3434596.55
527    580402.72    3434591.36
527    580405.22    3434591.23
527    580410.31    3434590.92
527    580414.15    3434590.26
527    580417.76    3434589.09
527    580419.08    3434588.55
527    580418.31    3434586.09
527    580419.58    3434585.41
527    580421.99    3434583.94
527    580424.16    3434582.09
527    580426.50    3434579.76
527    580427.66    3434578.43
527    580429.52    3434580.39
527    580430.35    3434579.40
527    580432.15    3434576.67
527    580433.43    3434574.45
527    580434.59    3434571.82
527    580435.48    3434569.52
527    580435.95    3434567.99
527    580433.51    3434567.07
527    580434.28    3434563.88
527    580434.66    3434561.11
527    580434.85    3434558.65
527    580434.87    3434554.38
527    580437.52    3434553.92
527    580437.42    3434552.57
527    580436.88    3434549.07
527    580436.03    3434545.96
527    580434.79    3434542.83
527    580433.66    3434540.56
527    580431.56    3434542.04
527    580430.04    3434539.26
527    580428.46    3434536.94
527    580426.59    3434534.79
527    580424.28    3434532.52
527    580425.45    3434530.38
527    580420.89    3434527.45
527    580416.34    3434525.85
527    580409.40    3434524.91
527    580410.16    3434516.62
527    580411.94    3434500.02
527    580412.68    3434489.97
527    580415.20    3434467.44
527    580416.49    3434455.63
527    580417.49    3434446.55
527    580418.53    3434436.67
527    580419.26    3434429.27
527    580420.19    3434424.75
527    580421.52    3434422.48
527    580423.61    3434420.50
527    580427.43    3434418.82
527    580443.00    3434414.02
527    580447.84    3434412.49
527    580450.94    3434411.99
527    580470.93    3434408.51
527    580489.23    3434405.44
527    580500.00    3434403.57
527    580530.27    3434397.13
527    580530.40    3434397.62
527    580520.87    3434413.69
527    580527.88    3434417.75
527    580535.56    3434404.94
527    580547.22    3434411.71
527    580551.49    3434404.41
527    580557.80    3434407.83
527    580562.58    3434399.91
527    580573.38    3434406.17
527    580575.83    3434402.06
527    580580.64    3434404.36
527    580584.45    3434405.21
527    580587.63    3434405.34
527    580587.88    3434401.50
527    580584.40    3434401.20
527    580586.93    3434398.40
527    580591.49    3434397.87
527    580594.23    3434396.79
527    580597.21    3434394.85
527    580598.93    3434393.29
527    580600.64    3434390.62
527    580601.19    3434388.90
527    580601.15    3434387.50
527    580600.39    3434386.34
527    580598.85    3434385.67
527    580597.53    3434385.43
527    580595.86    3434385.93
527    580594.91    3434386.80
527    580594.11    3434388.85
527    580594.32    3434390.05
527    580594.99    3434391.12
527    580592.75    3434392.77
527    580590.07    3434389.86
527    580589.15    3434388.33
527    580588.77    3434387.43
527    580590.67    3434384.68
527    580616.08    3434379.52
527    580616.34    3434380.20
527    580617.47    3434382.27
527    580617.76    3434382.73
527    580617.86    3434382.86
527    580618.79    3434384.14
527    580619.95    3434385.42
527    580620.32    3434385.79
527    580620.40    3434385.86
527    580620.56    3434386.00
527    580621.92    3434387.14
527    580623.79    3434388.48
527    580625.45    3434389.48
527    580626.14    3434389.82
527    580626.32    3434389.90
527    580627.86    3434390.49
527    580629.59    3434390.98
527    580629.78    3434391.02
527    580631.83    3434391.40
527    580632.65    3434391.50
527    580632.74    3434391.51
527    580632.88    3434391.53
527    580635.11    3434391.65
527    580636.65    3434391.59
527    580636.82    3434391.57
527    580637.01    3434391.56
527    580638.78    3434391.25
527    580640.80    3434390.70
527    580641.19    3434390.57
527    580641.28    3434390.54
527    580641.43    3434390.49
527    580643.26    3434389.76
527    580644.93    3434388.93
527    580645.74    3434388.43
527    580645.94    3434388.29
527    580647.16    3434387.35
527    580648.66    3434385.95
527    580649.47    3434385.12
527    580649.55    3434385.03
527    580649.63    3434384.95
527    580650.90    3434383.48
527    580651.64    3434382.44
527    580651.72    3434382.30
527    580651.84    3434382.11
527    580652.50    3434380.81
527    580653.24    3434378.90
527    580653.84    3434377.05
527    580653.88    3434376.93
527    580653.90    3434376.86
527    580654.78    3434374.61
527    580656.07    3434374.34
527    580656.25    3434376.75
527    580655.93    3434383.08
527    580656.43    3434383.11
527    580656.42    3434383.61
527    580661.98    3434383.70
527    580664.80    3434383.55
527    580667.14    3434383.11
527    580668.54    3434382.72
527    580669.61    3434386.96
527    580671.20    3434386.59
527    580671.33    3434387.00
527    580672.25    3434386.60
527    580673.09    3434389.26
527    580675.25    3434388.41
527    580678.87    3434386.70
527    580681.92    3434384.98
527    580685.14    3434382.51
527    580687.75    3434380.51
527    580690.19    3434377.74
527    580693.16    3434373.76
527    580695.05    3434371.01
527    580507.93    3434369.59
527    580477.95    3434369.37
527    580387.71    3434392.33
527    580388.59    3434401.81
527    580389.98    3434416.60
527    580393.05    3434425.21
527    580389.97    3434427.44
527    580379.04    3434435.37
527    580368.77    3434440.09
527    580367.78    3434454.92
527    580366.85    3434466.56
527    580356.95    3434498.71
527    580359.72    3434509.95
527    580384.04    3434523.89
527    580392.66    3434545.45
527    580413.40    3434547.10
527    580413.90    3434571.54
527    580377.45    3434576.84
527    580375.78    3434579.59
527    580365.00    3434582.16
527    580362.79    3434595.98
527    580355.98    3434604.24
527    580356.57    3434618.31
527    580365.26    3434630.53
527    580366.42    3434635.21
527    580370.98    3434650.53
527    580368.80    3434666.04
527    580368.71    3434686.88
527    580360.72    3434693.26
527    580359.72    3434708.24
527    580360.66    3434711.35
527    580363.53    3434713.83
527    580378.86    3434718.44
527    580381.54    3434733.11
527    580411.21    3434735.84
527    580414.03    3434732.57
527    580438.83    3434729.56
527    580436.79    3434754.94
527    580443.11    3434765.55
527    580446.41    3434768.39
527    580455.82    3434765.82
527    580475.09    3434770.02
527    580473.96    3434784.12
527    580474.25    3434787.75
528    580699.84    3434832.49
528    580774.96    3434833.78
528    580779.65    3434822.64
528    580781.52    3434802.25
528    580789.77    3434800.38
528    580791.64    3434786.07
528    580799.28    3434784.54
528    580788.17    3434783.80
528    580783.01    3434783.41
528    580776.82    3434782.35
528    580772.65    3434781.15
528    580768.29    3434780.92
528    580765.63    3434782.43
528    580764.99    3434783.61
528    580763.77    3434784.27
528    580763.47    3434784.16
528    580763.83    3434781.71
528    580763.48    3434780.45
528    580762.55    3434779.96
528    580761.56    3434779.74
528    580760.80    3434780.05
528    580760.04    3434781.16
528    580759.93    3434781.73
528    580761.06    3434784.25
528    580761.10    3434784.67
528    580759.96    3434784.95
528    580758.43    3434785.07
528    580756.25    3434784.25
528    580754.99    3434784.67
528    580752.71    3434786.37
528    580750.23    3434787.05
528    580746.72    3434789.82
528    580743.73    3434792.14
528    580740.72    3434792.01
528    580740.63    3434792.00
528    580737.91    3434791.78
528    580736.33    3434791.82
528    580736.14    3434791.84
528    580736.05    3434791.85
528    580735.91    3434791.86
528    580734.56    3434792.08
528    580733.09    3434792.51
528    580731.68    3434793.09
528    580730.45    3434793.73
528    580729.65    3434794.26
528    580729.54    3434794.34
528    580728.52    3434795.18
528    580727.10    3434796.59
528    580724.87    3434798.88
528    580724.61    3434799.12
528    580723.01    3434800.49
528    580720.76    3434802.17
528    580718.14    3434803.95
528    580715.44    3434805.62
528    580713.27    3434806.79
528    580711.66    3434807.51
528    580710.31    3434807.99
528    580709.96    3434808.09
528    580709.90    3434808.10
528    580708.11    3434808.60
528    580707.45    3434808.93
528    580707.22    3434809.10
528    580707.18    3434809.13
528    580706.67    3434809.68
528    580705.80    3434810.73
528    580705.58    3434810.92
528    580705.55    3434810.95
528    580705.51    3434810.98
528    580704.98    3434811.26
528    580704.17    3434811.50
528    580702.84    3434811.72
528    580702.65    3434811.75
528    580700.86    3434812.18
528    580698.45    3434812.97
528    580694.59    3434814.32
528    580694.25    3434814.42
528    580694.16    3434814.45
528    580693.76    3434814.56
528    580699.84    3434832.49
529    580801.91    3434790.77
529    580824.16    3434794.16
529    580841.17    3434797.24
529    580856.46    3434796.02
529    580861.15    3434796.39
529    580867.00    3434811.81
529    580870.70    3434818.44
529    580872.57    3434822.64
529    580874.75    3434826.54
529    580876.62    3434835.97
529    580893.06    3434840.23
529    580902.96    3434832.64
529    580911.13    3434830.70
529    580919.46    3434826.29
529    580919.07    3434816.47
529    580925.86    3434815.41
529    580933.39    3434814.51
529    580938.99    3434808.47
529    580946.64    3434806.42
529    580957.33    3434810.16
529    580969.73    3434814.51
529    580979.93    3434816.46
529    580993.04    3434791.91
529    580987.24    3434787.11
529    580979.25    3434781.25
529    580975.35    3434780.31
529    580966.76    3434782.40
529    580961.66    3434783.73
529    580959.20    3434783.53
529    580957.73    3434782.61
529    580956.73    3434780.83
529    580956.16    3434779.93
529    580952.15    3434772.10
529    580949.44    3434767.69
529    580948.84    3434766.94
529    580948.48    3434766.80
529    580948.12    3434766.83
529    580946.69    3434766.92
529    580944.41    3434767.58
529    580942.44    3434768.28
529    580941.51    3434768.50
529    580939.87    3434768.34
529    580937.79    3434769.05
529    580931.79    3434772.59
529    580924.19    3434777.20
529    580915.94    3434782.66
529    580911.94    3434784.25
529    580904.41    3434785.71
529    580900.76    3434785.92
529    580898.14    3434785.87
529    580888.33    3434786.17
529    580885.81    3434786.46
529    580884.60    3434787.30
529    580884.31    3434788.44
529    580884.98    3434790.65
529    580884.98    3434790.96
529    580884.14    3434791.11
529    580882.73    3434790.12
529    580880.83    3434789.43
529    580877.01    3434788.96
529    580871.96    3434787.85
529    580862.22    3434787.81
529    580860.13    3434787.28
529    580853.06    3434787.18
529    580851.61    3434786.81
529    580850.89    3434786.85
529    580849.78    3434787.39
529    580847.75    3434786.95
529    580841.53    3434787.53
529    580838.66    3434787.29
529    580835.98    3434786.47
529    580832.54    3434786.38
529    580813.08    3434785.73
529    580811.84    3434785.25
529    580805.39    3434785.37
529    580800.80    3434784.64
529    580800.09    3434784.60
529    580801.91    3434790.77
530    581013.73    3434789.28
530    581020.44    3434780.73
530    581028.72    3434759.74
530    581030.53    3434715.81
530    581034.67    3434706.45
530    581030.20    3434694.65
530    581030.55    3434688.77
530    581045.96    3434684.01
530    581055.92    3434683.21
530    581076.76    3434680.80
530    581084.75    3434674.17
530    581104.69    3434654.75
530    581108.58    3434653.55
530    581127.60    3434648.37
530    581138.51    3434650.94
530    581150.80    3434657.78
530    581167.64    3434660.92
530    581171.49    3434659.14
530    581188.40    3434654.19
530    581199.33    3434646.06
530    581209.40    3434634.45
530    581225.47    3434624.19
530    581246.87    3434604.77
530    581271.33    3434583.04
530    581278.74    3434568.25
530    581295.59    3434560.39
530    581307.43    3434549.77
530    581320.17    3434542.51
530    581339.40    3434519.85
530    581253.12    3434396.26
530    581266.45    3434393.83
530    581267.29    3434393.68
530    581255.33    3434375.27
530    581191.95    3434374.79
530    581195.61    3434379.21
530    581195.72    3434379.34
530    581195.95    3434379.63
530    581200.59    3434385.35
530    581204.75    3434390.48
530    581207.14    3434393.25
530    581207.38    3434393.51
530    581207.56    3434393.71
530    581209.62    3434395.88
530    581212.34    3434398.55
530    581214.95    3434400.93
530    581217.05    3434402.68
530    581217.26    3434402.84
530    581217.91    3434403.34
530    581223.20    3434407.06
530    581225.46    3434408.74
530    581226.97    3434410.02
530    581228.17    3434411.20
530    581228.37    3434411.42
530    581228.49    3434411.56
530    581228.85    3434411.98
530    581229.93    3434413.44
530    581231.79    3434416.32
530    581233.36    3434418.73
530    581233.45    3434418.87
530    581233.69    3434419.20
530    581234.70    3434420.54
530    581236.57    3434422.80
530    581239.40    3434425.92
530    581243.50    3434430.19
530    581247.38    3434434.04
530    581247.68    3434434.33
530    581247.86    3434434.50
530    581248.58    3434435.20
530    581251.92    3434438.26
530    581254.80    3434440.73
530    581257.04    3434442.50
530    581257.25    3434442.65
530    581258.21    3434443.36
530    581259.55    3434444.41
530    581260.42    3434445.25
530    581261.01    3434446.03
530    581261.41    3434446.78
530    581261.47    3434446.91
530    581261.50    3434447.01
530    581261.74    3434447.94
530    581261.81    3434449.13
530    581261.67    3434450.29
530    581261.66    3434450.39
530    581261.63    3434450.49
530    581261.40    3434451.32
530    581260.88    3434452.57
530    581260.00    3434454.16
530    581259.95    3434454.24
530    581258.19    3434457.09
530    581256.80    3434459.43
530    581255.94    3434461.12
530    581255.38    3434462.50
530    581255.33    3434462.66
530    581255.25    3434462.91
530    581254.98    3434463.97
530    581254.65    3434465.89
530    581254.24    3434470.20
530    581253.92    3434473.09
530    581253.54    3434475.09
530    581253.12    3434476.48
530    581253.02    3434476.76
530    581252.95    3434476.94
530    581252.37    3434478.29
530    581251.57    3434479.75
530    581250.52    3434481.34
530    581250.10    3434483.21
530    581249.58    3434483.55
530    581251.07    3434486.25
530    581251.61    3434486.26
530    581253.54    3434484.74
530    581254.83    3434483.79
530    581255.40    3434483.30
530    581255.48    3434483.23
530    581255.57    3434483.14
530    581256.46    3434482.24
530    581257.35    3434481.15
530    581258.20    3434479.87
530    581258.92    3434478.52
530    581259.08    3434478.17
530    581259.13    3434478.06
530    581259.25    3434477.79
530    581259.82    3434476.13
530    581260.39    3434473.87
530    581261.09    3434470.12
530    581261.88    3434465.74
530    581262.37    3434463.68
530    581262.40    3434463.58
530    581262.94    3434461.88
530    581263.48    3434460.68
530    581263.99    3434459.86
530    581264.55    3434459.21
530    581264.78    3434459.00
530    581264.86    3434458.93
530    581264.90    3434458.89
530    581265.49    3434458.51
530    581265.72    3434458.41
530    581265.76    3434458.39
530    581265.81    3434458.37
530    581266.50    3434458.24
530    581267.10    3434458.24
530    581267.13    3434458.24
530    581267.46    3434458.26
530    581268.74    3434458.50
530    581269.96    3434458.90
530    581271.44    3434459.58
530    581273.16    3434460.57
530    581275.39    3434462.07
530    581278.67    3434464.50
530    581281.11    3434466.35
530    581281.38    3434466.56
530    581281.70    3434466.80
530    581291.56    3434474.09
530    581294.00    3434476.05
530    581295.75    3434477.60
530    581296.58    3434478.42
530    581296.85    3434478.70
530    581296.95    3434478.81
530    581298.22    3434480.30
530    581299.96    3434482.60
530    581301.48    3434484.70
530    581301.65    3434484.94
530    581308.03    3434493.66
530    581309.78    3434496.26
530    581309.85    3434496.37
530    581311.19    3434498.60
530    581311.93    3434500.02
530    581312.21    3434500.56
530    581312.77    3434501.87
530    581312.82    3434501.99
530    581312.86    3434502.10
530    581313.46    3434503.96
530    581314.48    3434507.75
530    581314.58    3434508.10
530    581313.14    3434507.77
530    581309.22    3434506.88
530    581307.83    3434514.90
530    581310.73    3434515.49
530    581310.12    3434519.22
530    581310.05    3434519.31
530    581306.31    3434523.18
530    581306.23    3434523.26
530    581306.09    3434523.40
530    581302.86    3434526.54
530    581299.54    3434529.58
530    581299.09    3434529.97
530    581298.88    3434530.15
530    581295.42    3434533.03
530    581289.02    3434538.10
530    581288.36    3434538.61
530    581288.13    3434538.79
530    581287.98    3434538.91
530    581283.81    3434542.05
530    581281.34    3434543.77
530    581279.99    3434544.62
530    581279.87    3434544.69
530    581278.04    3434545.69
530    581276.25    3434546.50
530    581274.66    3434547.07
530    581274.03    3434547.24
530    581273.94    3434547.26
530    581272.42    3434547.54
530    581270.69    3434547.67
530    581269.51    3434547.64
530    581269.28    3434547.62
530    581267.45    3434547.38
530    581264.98    3434546.82
530    581258.71    3434545.15
530    581258.48    3434545.10
530    581258.25    3434545.05
530    581258.08    3434545.01
530    581255.50    3434544.56
530    581252.56    3434544.23
530    581250.14    3434544.12
530    581249.63    3434544.13
530    581249.44    3434544.14
530    581247.17    3434544.31
530    581242.79    3434544.92
530    581240.22    3434545.27
530    581240.02    3434545.29
530    581239.97    3434545.30
530    581238.69    3434545.38
530    581237.94    3434545.27
530    581237.48    3434545.08
530    581237.44    3434545.05
530    581237.01    3434544.71
530    581236.63    3434544.22
530    581236.45    3434543.86
530    581236.44    3434543.83
530    581236.42    3434543.79
530    581236.26    3434543.14
530    581236.24    3434542.15
530    581236.31    3434541.30
530    581236.32    3434541.25
530    581236.34    3434541.01
530    581236.48    3434538.02
530    581236.47    3434533.26
530    581236.39    3434530.09
530    581236.38    3434529.86
530    581236.37    3434529.66
530    581235.96    3434519.83
530    581235.95    3434519.66
530    581235.65    3434512.09
530    581235.64    3434511.60
530    581235.64    3434511.41
530    581235.70    3434507.19
530    581235.93    3434503.56
530    581236.08    3434502.22
530    581236.11    3434502.03
530    581236.11    3434501.98
530    581236.41    3434500.41
530    581236.49    3434500.12
530    581236.49    3434500.11
530    581236.51    3434500.03
530    581236.98    3434498.81
530    581238.24    3434496.22
530    581238.28    3434496.14
530    581238.67    3434495.47
530    581241.47    3434492.05
530    581244.44    3434490.27
530    581242.94    3434487.77
530    581239.97    3434489.56
530    581237.64    3434491.31
530    581235.83    3434492.69
530    581232.24    3434497.98
530    581231.53    3434500.02
530    581230.54    3434502.86
530    581230.53    3434502.91
530    581230.12    3434505.30
530    581230.12    3434505.35
530    581230.09    3434505.58
530    581229.89    3434507.89
530    581229.80    3434511.61
530    581229.86    3434516.74
530    581229.87    3434516.98
530    581229.88    3434517.25
530    581230.38    3434529.84
530    581230.39    3434530.39
530    581230.39    3434530.67
530    581230.39    3434530.86
530    581230.27    3434536.02
530    581230.11    3434540.07
530    581230.11    3434540.15
530    581229.92    3434543.19
530    581229.77    3434544.38
530    581229.75    3434544.49
530    581229.74    3434544.55
530    581229.58    3434545.21
530    581229.41    3434545.40
530    581229.12    3434545.36
530    581228.19    3434544.82
530    581228.18    3434544.81
530    581228.10    3434544.78
530    581225.90    3434543.72
530    581224.57    3434543.23
530    581224.33    3434543.16
530    581224.15    3434543.11
530    581222.83    3434542.84
530    581220.90    3434542.67
530    581218.14    3434542.66
530    581214.60    3434542.84
530    581214.46    3434542.85
530    581210.39    3434543.22
530    581207.82    3434543.59
530    581207.54    3434543.65
530    581204.78    3434544.28
530    581201.47    3434545.22
530    581199.06    3434546.04
530    581197.26    3434546.79
530    581196.06    3434547.44
530    581195.19    3434548.05
530    581194.79    3434548.40
530    581194.72    3434548.47
530    581194.02    3434549.28
530    581193.07    3434550.68
530    581191.96    3434552.36
530    581191.90    3434552.44
530    581191.86    3434552.49
530    581190.27    3434554.57
530    581190.14    3434554.77
530    581190.11    3434554.82
530    581190.06    3434554.90
530    581189.58    3434555.87
530    581189.13    3434557.17
530    581188.72    3434558.87
530    581188.67    3434559.14
530    581188.65    3434559.24
530    581188.34    3434561.48
530    581188.17    3434563.73
530    581188.17    3434563.82
530    581188.16    3434564.00
530    581188.15    3434567.36
530    581188.35    3434572.50
530    581188.36    3434572.68
530    581188.37    3434572.85
530    581188.86    3434579.05
530    581189.06    3434581.12
530    581189.08    3434581.29
530    581189.10    3434581.52
530    581190.09    3434590.56
530    581190.21    3434592.65
530    581190.21    3434592.88
530    581190.22    3434593.18
530    581190.15    3434596.21
530    581189.57    3434605.89
530    581189.55    3434607.70
530    581189.56    3434608.01
530    581189.56    3434608.14
530    581189.79    3434611.50
530    581189.99    3434614.60
530    581190.00    3434614.73
530    581190.00    3434614.84
530    581189.95    3434617.31
530    581189.75    3434619.44
530    581189.64    3434620.07
530    581189.62    3434620.21
530    581189.18    3434622.09
530    581188.39    3434624.60
530    581187.69    3434626.56
530    581187.64    3434626.69
530    581187.58    3434626.84
530    581186.43    3434629.64
530    581185.51    3434631.54
530    581184.67    3434632.95
530    581184.41    3434633.32
530    581184.33    3434633.44
530    581184.29    3434633.48
530    581183.40    3434634.54
530    581182.45    3434635.50
530    581182.42    3434635.54
530    581181.46    3434636.54
530    581181.05    3434637.15
530    581180.99    3434637.28
530    581180.97    3434637.33
530    581180.95    3434637.39
530    581180.77    3434638.09
530    581180.56    3434640.48
530    581180.41    3434640.95
530    581180.39    3434641.01
530    581180.07    3434641.56
530    581179.51    3434642.20
530    581178.46    3434643.09
530    581178.41    3434643.13
530    581178.37    3434643.17
530    581178.33    3434643.20
530    581176.88    3434644.35
530    581176.85    3434644.37
530    581176.80    3434644.41
530    581175.61    3434645.28
530    581174.83    3434645.69
530    581174.19    3434645.89
530    581174.12    3434645.90
530    581174.08    3434645.91
530    581173.09    3434646.00
530    581172.95    3434644.54
530    581172.86    3434643.66
530    581172.71    3434642.93
530    581172.69    3434642.86
530    581172.68    3434642.82
530    581172.33    3434641.83
530    581171.82    3434640.84
530    581171.77    3434640.76
530    581171.76    3434640.74
530    581171.72    3434640.68
530    581171.03    3434639.75
530    581170.14    3434638.80
530    581169.47    3434638.23
530    581169.41    3434638.19
530    581168.53    3434637.64
530    581167.40    3434637.11
530    581166.60    3434636.83
530    581166.54    3434636.81
530    581166.48    3434636.80
530    581165.32    3434636.59
530    581163.89    3434636.51
530    581163.52    3434636.52
530    581163.45    3434636.53
530    581163.39    3434636.53
530    581162.07    3434636.72
530    581160.85    3434637.05
530    581160.44    3434637.20
530    581160.38    3434637.23
530    581160.32    3434637.26
530    581159.38    3434637.77
530    581158.38    3434638.48
530    581157.63    3434639.16
530    581157.59    3434639.20
530    581156.96    3434639.98
530    581156.43    3434640.83
530    581156.34    3434641.01
530    581156.32    3434641.05
530    581155.92    3434642.13
530    581155.90    3434642.18
530    581155.89    3434642.21
530    581155.88    3434642.26
530    581155.39    3434644.16
530    581155.21    3434645.09
530    581155.21    3434645.14
530    581155.14    3434645.75
530    581154.98    3434647.19
530    581153.54    3434646.98
530    581153.35    3434646.94
530    581153.30    3434646.92
530    581153.26    3434646.91
530    581152.33    3434646.57
530    581151.32    3434646.10
530    581151.28    3434646.09
530    581151.24    3434646.07
530    581149.88    3434645.45
530    581149.36    3434645.08
530    581149.16    3434644.87
530    581149.15    3434644.86
530    581149.12    3434644.82
530    581148.84    3434644.34
530    581148.70    3434643.91
530    581148.70    3434643.89
530    581148.69    3434643.84
530    581148.65    3434643.09
530    581148.72    3434641.43
530    581148.72    3434641.38
530    581148.71    3434641.33
530    581148.52    3434640.61
530    581148.11    3434639.74
530    581148.01    3434639.56
530    581148.00    3434639.54
530    581147.97    3434639.49
530    581147.26    3434638.44
530    581146.62    3434637.70
530    581146.35    3434637.45
530    581146.31    3434637.41
530    581146.24    3434637.36
530    581145.48    3434636.84
530    581144.11    3434636.14
530    581142.64    3434635.42
530    581142.57    3434635.37
530    581142.51    3434635.34
530    581141.08    3434634.42
530    581139.87    3434633.63
530    581139.82    3434633.60
530    581139.77    3434633.57
530    581138.10    3434632.67
530    581138.09    3434632.66
530    581138.00    3434632.62
530    581135.00    3434631.14
530    581133.59    3434630.57
530    581133.49    3434630.54
530    581133.35    3434630.49
530    581131.68    3434630.02
530    581129.51    3434629.58
530    581127.47    3434629.34
530    581125.91    3434629.32
530    581125.75    3434629.33
530    581125.69    3434629.34
530    581123.08    3434629.64
530    581122.97    3434629.64
530    581122.91    3434629.64
530    581122.86    3434629.64
530    581121.47    3434629.49
530    581120.92    3434629.42
530    581120.88    3434629.41
530    581120.70    3434629.40
530    581118.93    3434629.33
530    581116.09    3434629.48
530    581112.19    3434629.86
530    581112.01    3434629.89
530    581111.92    3434629.90
530    581107.22    3434630.49
530    581107.14    3434630.50
530    581103.99    3434630.84
530    581103.10    3434631.02
530    581103.02    3434631.04
530    581101.80    3434631.46
530    581100.27    3434632.17
530    581099.59    3434632.53
530    581099.53    3434632.56
530    581097.35    3434633.71
530    581096.59    3434634.02
530    581096.52    3434634.04
530    581096.47    3434634.06
530    581094.03    3434634.71
530    581093.88    3434634.78
530    581093.83    3434634.80
530    581093.68    3434634.87
530    581092.98    3434635.29
530    581092.21    3434635.93
530    581091.14    3434637.04
530    581088.30    3434640.34
530    581087.81    3434640.84
530    581087.70    3434640.94
530    581086.47    3434641.97
530    581084.70    3434643.25
530    581082.37    3434644.75
530    581082.00    3434644.97
530    581081.87    3434645.04
530    581081.70    3434645.14
530    581078.41    3434646.95
530    581074.43    3434649.13
530    581073.41    3434649.75
530    581073.24    3434649.85
530    581073.16    3434649.91
530    581071.68    3434650.95
530    581070.51    3434651.93
530    581069.66    3434652.81
530    581069.60    3434652.88
530    581069.47    3434653.05
530    581068.74    3434654.11
530    581067.79    3434655.82
530    581065.81    3434659.73
530    581065.04    3434660.99
530    581064.40    3434661.81
530    581064.11    3434662.10
530    581063.99    3434662.21
530    581063.19    3434662.81
530    581062.01    3434663.48
530    581060.10    3434664.35
530    581056.32    3434665.91
530    581056.20    3434665.96
530    581052.65    3434667.49
530    581051.35    3434667.90
530    581050.39    3434668.07
530    581050.28    3434668.08
530    581049.13    3434668.06
530    581047.74    3434667.83
530    581046.11    3434667.39
530    581044.71    3434666.88
530    581044.60    3434666.83
530    581044.54    3434666.81
530    581043.50    3434666.29
530    581042.84    3434665.82
530    581042.44    3434665.37
530    581042.32    3434665.19
530    581042.30    3434665.14
530    581042.28    3434665.10
530    581042.10    3434664.53
530    581042.07    3434663.74
530    581042.22    3434662.89
530    581042.30    3434662.63
530    581042.31    3434662.58
530    581042.36    3434662.45
530    581042.73    3434661.72
530    581043.37    3434660.84
530    581044.66    3434659.41
530    581045.74    3434658.19
530    581046.35    3434657.31
530    581046.41    3434657.19
530    581046.44    3434657.15
530    581047.01    3434655.81
530    581047.06    3434655.67
530    581047.03    3434655.18
530    581046.77    3434652.73
530    581046.65    3434649.70
530    581046.46    3434648.33
530    581046.16    3434647.60
530    581045.17    3434646.86
530    581043.91    3434646.47
530    581042.64    3434646.48
530    581041.87    3434646.88
530    581039.86    3434647.89
530    581038.98    3434647.85
530    581036.03    3434647.13
530    581034.73    3434646.88
530    581020.26    3434644.37
530    581013.36    3434643.30
530    581010.75    3434643.16
530    581007.49    3434643.36
530    581003.26    3434644.50
530    581000.00    3434645.44
530    580993.21    3434647.42
530    580992.10    3434641.43
530    580990.50    3434636.16
530    580986.66    3434628.41
530    580981.81    3434621.98
530    580975.66    3434616.43
530    580971.13    3434613.43
530    580964.76    3434610.63
530    580960.40    3434608.99
530    580954.70    3434607.73
530    580949.73    3434607.38
530    580942.30    3434607.81
530    580937.59    3434608.70
530    580934.51    3434609.01
530    580932.46    3434608.86
530    580928.97    3434605.25
530    580927.18    3434606.97
530    580925.72    3434605.46
530    580922.94    3434608.15
530    580920.59    3434607.97
530    580917.00    3434607.39
530    580913.27    3434606.28
530    580907.62    3434603.98
530    580903.88    3434601.91
530    580899.53    3434599.04
530    580895.72    3434595.81
530    580892.84    3434593.06
530    580890.32    3434590.29
530    580887.82    3434586.74
530    580885.54    3434582.86
530    580885.60    3434581.94
530    580885.90    3434581.54
530    580886.33    3434581.24
530    580888.88    3434580.14
530    580891.19    3434579.47
530    580891.94    3434579.29
530    580892.12    3434579.25
530    580895.22    3434578.66
530    580897.74    3434578.13
530    580899.27    3434577.65
530    580900.38    3434577.14
530    580900.53    3434577.05
530    580900.67    3434576.96
530    580900.82    3434576.87
530    580901.66    3434576.22
530    580902.57    3434575.34
530    580903.91    3434573.80
530    580905.73    3434571.65
530    580906.78    3434570.59
530    580906.92    3434570.47
530    580907.06    3434570.35
530    580907.24    3434570.20
530    580908.40    3434569.38
530    580909.84    3434568.56
530    580914.75    3434566.12
530    580916.13    3434565.27
530    580917.03    3434564.58
530    580917.20    3434564.42
530    580917.34    3434564.29
530    580918.12    3434563.46
530    580919.05    3434562.21
530    580920.20    3434560.37
530    580922.41    3434556.58
530    580922.63    3434556.25
530    580933.05    3434558.12
530    580932.62    3434560.76
530    580937.39    3434561.73
530    580938.56    3434553.81
530    580933.81    3434552.99
530    580933.46    3434556.69
530    580923.20    3434554.72
530    580924.86    3434549.44
530    580924.90    3434549.32
530    580926.06    3434545.70
530    580926.48    3434543.86
530    580926.56    3434543.37
530    580926.59    3434543.15
530    580926.71    3434541.38
530    580926.64    3434539.37
530    580926.37    3434537.13
530    580925.92    3434534.91
530    580925.38    3434532.95
530    580925.24    3434532.52
530    580925.17    3434532.30
530    580925.11    3434532.13
530    580924.35    3434530.24
530    580923.45    3434528.41
530    580922.43    3434526.67
530    580921.38    3434525.17
530    580920.81    3434524.45
530    580920.69    3434524.32
530    580920.61    3434524.23
530    580919.49    3434523.07
530    580918.26    3434522.02
530    580917.03    3434521.14
530    580916.57    3434520.85
530    580916.47    3434520.80
530    580915.08    3434520.07
530    580913.53    3434519.43
530    580911.82    3434518.89
530    580911.50    3434518.81
530    580911.39    3434518.79
530    580911.17    3434518.74
530    580909.19    3434518.41
530    580906.97    3434518.22
530    580904.27    3434518.19
530    580901.36    3434518.36
530    580900.25    3434518.48
530    580899.80    3434518.54
530    580896.73    3434519.05
530    580892.38    3434520.01
530    580883.73    3434522.04
530    580880.69    3434522.61
530    580878.94    3434522.85
530    580878.50    3434522.90
530    580878.10    3434522.94
530    580875.31    3434523.08
530    580871.31    3434523.06
530    580858.84    3434522.58
530    580858.40    3434522.57
530    580857.37    3434518.82
530    580864.36    3434516.94
530    580866.93    3434513.41
530    580865.69    3434509.39
530    580857.58    3434511.35
530    580857.56    3434510.07
530    580855.99    3434509.42
530    580854.42    3434508.89
530    580852.83    3434508.47
530    580851.15    3434508.14
530    580848.57    3434507.86
530    580845.91    3434507.84
530    580843.27    3434508.10
530    580840.72    3434508.63
530    580838.14    3434509.45
530    580835.71    3434510.51
530    580833.40    3434511.83
530    580831.21    3434513.41
530    580829.95    3434514.49
530    580828.81    3434515.61
530    580827.70    3434516.83
530    580826.68    3434518.13
530    580825.79    3434519.41
530    580826.05    3434520.40
530    580820.38    3434522.10
530    580820.64    3434523.13
530    580818.30    3434523.74
530    580819.04    3434526.61
530    580823.47    3434528.60
530    580830.24    3434526.48
530    580831.27    3434529.63
530    580827.63    3434530.85
530    580825.81    3434531.60
530    580825.59    3434531.70
530    580825.48    3434531.76
530    580825.31    3434531.84
530    580823.85    3434532.64
530    580821.97    3434533.85
530    580819.86    3434535.41
530    580818.11    3434536.86
530    580817.83    3434537.11
530    580817.77    3434537.17
530    580816.60    3434538.31
530    580815.83    3434539.25
530    580815.29    3434540.12
530    580815.25    3434540.19
530    580815.19    3434540.31
530    580814.86    3434541.23
530    580814.59    3434542.48
530    580814.47    3434544.07
530    580814.52    3434545.83
530    580814.69    3434547.13
530    580814.71    3434547.27
530    580814.74    3434547.39
530    580815.14    3434549.02
530    580816.39    3434552.88
530    580815.95    3434554.25
530    580814.87    3434557.15
530    580813.86    3434558.98
530    580817.80    3434574.48
530    580821.36    3434573.38
530    580822.79    3434573.77
530    580824.19    3434574.68
530    580825.24    3434575.25
530    580825.44    3434575.56
530    580826.30    3434576.75
530    580827.51    3434578.14
530    580829.08    3434579.71
530    580831.30    3434581.72
530    580834.47    3434584.37
530    580837.72    3434586.93
530    580838.93    3434587.82
530    580839.17    3434588.00
530    580842.09    3434590.00
530    580845.82    3434592.37
530    580848.86    3434594.17
530    580851.21    3434595.40
530    580851.47    3434595.52
530    580851.66    3434595.61
530    580853.99    3434596.61
530    580856.58    3434597.54
530    580859.01    3434598.27
530    580861.06    3434598.72
530    580861.27    3434598.76
530    580861.48    3434598.79
530    580861.57    3434598.80
530    580863.46    3434598.99
530    580865.27    3434598.99
530    580866.22    3434598.90
530    580866.30    3434598.89
530    580867.71    3434598.60
530    580868.84    3434598.23
530    580869.75    3434597.77
530    580869.88    3434597.69
530    580869.95    3434597.65
530    580870.01    3434597.61
530    580870.83    3434596.98
530    580871.66    3434596.14
530    580872.52    3434595.10
530    580872.57    3434595.04
530    580872.66    3434594.91
530    580874.00    3434592.99
530    580876.23    3434589.66
530    580876.88    3434588.80
530    580876.98    3434588.67
530    580877.06    3434588.57
530    580878.42    3434587.03
530    580881.29    3434584.06
530    580881.74    3434583.95
530    580882.11    3434583.98
530    580882.55    3434584.02
530    580883.14    3434584.28
530    580885.48    3434588.25
530    580888.14    3434592.03
530    580890.84    3434595.01
530    580893.86    3434597.88
530    580897.86    3434601.27
530    580902.44    3434604.29
530    580906.42    3434606.50
530    580912.35    3434608.91
530    580916.38    3434610.11
530    580920.26    3434610.74
530    580918.80    3434612.16
530    580924.23    3434617.76
530    580928.78    3434613.35
530    580931.18    3434615.82
530    580935.25    3434611.74
530    580937.99    3434611.46
530    580942.64    3434610.58
530    580949.71    3434610.17
530    580954.30    3434610.49
530    580959.61    3434611.67
530    580963.71    3434613.21
530    580969.79    3434615.88
530    580973.94    3434618.64
530    580979.75    3434623.87
530    580984.29    3434629.88
530    580987.90    3434637.19
530    580989.39    3434642.09
530    580990.42    3434648.29
530    580980.78    3434651.07
530    580980.78    3434651.08
530    580965.56    3434654.92
530    580961.23    3434655.89
530    580959.33    3434656.21
530    580955.76    3434656.44
530    580948.86    3434656.75
530    580933.73    3434656.97
530    580929.21    3434657.60
530    580927.58    3434658.20
530    580925.75    3434659.31
530    580923.00    3434662.20
530    580921.50    3434665.01
530    580919.48    3434671.36
530    580917.34    3434678.03
530    580916.05    3434682.97
530    580914.16    3434689.91
530    580913.05    3434693.96
530    580912.06    3434700.26
530    580912.47    3434702.82
530    580915.48    3434708.39
530    580915.53    3434708.46
530    580918.06    3434712.18
530    580918.22    3434712.40
530    580920.39    3434715.31
530    580922.34    3434717.70
530    580923.82    3434719.36
530    580924.99    3434720.50
530    580926.02    3434721.36
530    580926.92    3434721.94
530    580927.15    3434722.07
530    580927.39    3434722.19
530    580927.45    3434722.22
530    580928.59    3434722.67
530    580930.58    3434723.29
530    580930.65    3434723.31
530    580930.82    3434723.37
530    580932.65    3434724.08
530    580934.90    3434725.13
530    580937.89    3434726.72
530    580938.51    3434727.07
530    580938.66    3434727.15
530    580938.87    3434727.28
530    580943.22    3434729.90
530    580947.99    3434732.77
530    580949.05    3434733.36
530    580949.17    3434733.43
530    580954.69    3434736.36
530    580955.04    3434736.57
530    580955.19    3434736.66
530    580957.13    3434737.92
530    580959.29    3434739.49
530    580961.26    3434741.10
530    580962.23    3434741.98
530    580962.31    3434742.05
530    580963.44    3434743.22
530    580964.22    3434744.21
530    580964.73    3434745.05
530    580965.05    3434745.84
530    580965.17    3434746.46
530    580965.18    3434746.56
530    580965.18    3434746.61
530    580965.13    3434747.45
530    580964.88    3434748.43
530    580964.70    3434748.91
530    580964.68    3434748.96
530    580964.66    3434749.00
530    580963.83    3434750.71
530    580963.72    3434750.94
530    580962.63    3434752.94
530    580957.18    3434758.82
530    580954.69    3434760.84
530    580953.23    3434762.78
530    580952.76    3434763.91
530    580952.98    3434765.21
530    580953.93    3434766.93
530    580955.48    3434770.09
530    580959.96    3434777.64
530    580960.94    3434778.97
530    580963.14    3434778.50
530    580967.04    3434776.32
530    580976.65    3434771.57
530    580981.02    3434769.46
530    580984.86    3434768.49
530    580989.85    3434768.64
530    580994.52    3434770.28
530    581000.00    3434774.77
530    581000.49    3434775.18
530    581010.09    3434784.92
530    581013.73    3434789.28
531    581367.37    3435317.28
531    581374.50    3435316.11
531    581380.39    3435318.42
531    581394.81    3435320.19
531    581396.58    3435322.47
531    581401.77    3435325.38
531    581406.80    3435322.32
531    581432.47    3435311.33
531    581435.22    3435310.14
531    581449.39    3435314.99
531    581464.14    3435309.95
531    581467.30    3435310.23
531    581483.18    3435310.33
531    581497.89    3435309.84
531    581498.17    3435273.58
531    581461.00    3435270.80
531    581444.14    3435269.00
531    581443.20    3435269.01
531    581442.80    3435269.33
531    581442.44    3435271.04
531    581417.87    3435268.99
531    581418.02    3435266.54
531    581413.86    3435266.18
531    581407.90    3435266.20
531    581400.86    3435265.81
531    581401.06    3435263.73
531    581386.14    3435262.64
531    581385.78    3435263.01
531    581385.58    3435262.97
531    581377.64    3435261.71
531    581375.58    3435261.44
531    581375.46    3435261.43
531    581372.48    3435261.17
531    581370.24    3435261.15
531    581369.38    3435261.20
531    581369.22    3435261.22
531    581367.46    3435261.49
531    581365.07    3435262.05
531    581361.42    3435263.11
531    581361.30    3435263.15
531    581358.48    3435263.95
531    581356.95    3435264.24
531    581355.65    3435264.31
531    581355.53    3435264.30
531    581355.46    3435264.30
531    581354.14    3435264.12
531    581352.13    3435263.70
531    581353.00    3435268.18
531    581358.37    3435273.98
531    581366.00    3435312.95
531    581367.37    3435317.28
532    581318.39    3435435.32
532    581317.85    3435441.87
532    581317.28    3435448.74
532    581318.35    3435452.18
532    581319.67    3435457.73
532    581320.89    3435462.65
532    581324.59    3435465.06
532    581323.45    3435466.69
532    581322.38    3435467.56
532    581319.11    3435469.96
532    581318.19    3435469.65
532    581317.23    3435469.73
532    581316.38    3435470.20
532    581315.79    3435470.96
532    581315.55    3435471.90
532    581315.71    3435472.85
532    581316.23    3435473.66
532    581316.66    3435473.94
532    581316.37    3435476.07
532    581314.82    3435475.86
532    581314.61    3435477.44
532    581315.42    3435477.55
532    581315.02    3435480.63
532    581318.47    3435481.07
532    581318.86    3435478.00
532    581319.59    3435478.10
532    581319.78    3435476.53
532    581318.50    3435476.38
532    581318.76    3435474.15
532    581319.33    3435473.88
532    581319.97    3435473.15
532    581320.26    3435472.23
532    581320.34    3435471.64
532    581324.99    3435468.13
532    581326.33    3435466.20
532    581327.41    3435466.91
532    581327.23    3435479.23
532    581332.51    3435483.38
532    581331.93    3435484.06
532    581325.24    3435492.25
532    581335.51    3435500.60
532    581333.43    3435503.04
532    581341.11    3435509.23
532    581342.97    3435507.02
532    581343.82    3435507.56
532    581344.80    3435507.97
532    581346.51    3435508.10
532    581347.97    3435507.93
532    581348.81    3435507.55
532    581349.93    3435506.55
532    581350.66    3435505.34
532    581351.18    3435503.99
532    581351.30    3435502.91
532    581351.12    3435501.40
532    581350.74    3435500.44
532    581350.49    3435500.02
532    581349.59    3435499.10
532    581349.51    3435491.29
532    581364.02    3435484.88
532    581358.47    3435518.88
532    581352.91    3435519.76
532    581345.02    3435522.37
532    581346.61    3435525.53
532    581351.11    3435524.29
532    581354.49    3435524.00
532    581357.89    3435524.23
532    581362.21    3435525.46
532    581366.78    3435527.95
532    581369.81    3435530.95
532    581372.84    3435535.06
532    581387.63    3435527.84
532    581386.38    3435526.81
532    581382.37    3435524.27
532    581377.44    3435521.81
532    581373.88    3435520.52
532    581374.15    3435519.37
532    581375.20    3435519.37
532    581384.58    3435520.78
532    581386.05    3435516.84
532    581388.08    3435511.15
532    581389.53    3435511.89
532    581393.20    3435511.79
532    581394.15    3435511.44
532    581395.70    3435510.56
532    581396.54    3435509.41
532    581397.01    3435508.49
532    581397.85    3435506.15
532    581398.23    3435505.36
532    581398.50    3435505.15
532    581399.06    3435505.06
532    581400.40    3435505.01
532    581404.54    3435504.89
532    581409.00    3435504.15
532    581411.84    3435502.96
532    581414.29    3435501.37
532    581414.80    3435501.59
532    581416.10    3435501.81
532    581417.03    3435501.81
532    581417.94    3435501.45
532    581418.89    3435500.93
532    581420.04    3435500.02
532    581421.03    3435499.24
532    581424.06    3435496.47
532    581426.53    3435493.97
532    581429.14    3435490.39
532    581430.52    3435487.76
532    581436.42    3435469.78
532    581437.64    3435466.96
532    581441.80    3435460.57
532    581442.72    3435460.68
532    581445.20    3435464.19
532    581447.21    3435466.38
532    581447.52    3435467.29
532    581447.47    3435467.87
532    581447.32    3435468.44
532    581447.18    3435468.73
532    581446.51    3435470.12
532    581441.29    3435479.58
532    581438.07    3435485.84
532    581433.79    3435495.26
532    581429.70    3435500.02
532    581423.84    3435506.10
532    581423.20    3435508.47
532    581423.33    3435509.57
532    581424.61    3435512.88
532    581428.00    3435518.82
532    581430.50    3435523.78
532    581426.31    3435525.80
532    581425.83    3435524.91
532    581422.41    3435526.74
532    581425.34    3435532.20
532    581428.76    3435530.37
532    581427.18    3435527.42
532    581431.36    3435525.16
532    581435.79    3435533.51
532    581441.63    3435543.77
532    581437.61    3435546.17
532    581434.92    3435543.95
532    581432.88    3435546.42
532    581432.79    3435547.08
532    581437.34    3435550.83
532    581439.74    3435547.92
532    581438.95    3435547.28
532    581442.53    3435545.30
532    581446.32    3435552.50
532    581448.14    3435556.30
532    581448.29    3435556.98
532    581446.16    3435557.40
532    581443.78    3435557.84
532    581444.52    3435556.39
532    581441.20    3435554.68
532    581438.35    3435560.25
532    581441.67    3435561.96
532    581442.72    3435559.90
532    581447.58    3435559.13
532    581449.15    3435559.04
532    581450.33    3435560.76
532    581452.38    3435562.63
532    581455.58    3435563.97
532    581458.00    3435563.81
532    581463.65    3435563.08
532    581466.42    3435561.88
532    581468.37    3435560.19
532    581469.02    3435558.46
532    581469.01    3435555.09
532    581469.00    3435553.09
532    581470.84    3435552.83
532    581471.18    3435557.46
532    581473.74    3435555.60
532    581482.79    3435550.30
532    581484.59    3435555.73
532    581473.21    3435564.02
532    581472.96    3435565.50
532    581473.45    3435566.85
532    581478.03    3435571.52
532    581483.82    3435577.12
532    581480.29    3435580.89
532    581477.36    3435577.37
532    581473.77    3435573.54
532    581469.23    3435569.69
532    581466.93    3435568.73
532    581462.95    3435568.41
532    581459.77    3435568.45
532    581456.65    3435569.12
532    581451.45    3435571.40
532    581450.42    3435571.98
532    581448.91    3435573.75
532    581448.05    3435575.11
532    581447.63    3435577.27
532    581443.49    3435576.70
532    581444.17    3435574.97
532    581440.61    3435573.57
532    581438.28    3435579.47
532    581441.85    3435580.87
532    581442.79    3435578.48
532    581447.40    3435579.26
532    581444.75    3435595.70
532    581446.05    3435601.79
532    581445.82    3435605.68
532    581445.03    3435605.57
532    581442.31    3435605.20
532    581441.30    3435605.03
532    581441.62    3435603.91
532    581437.99    3435602.87
532    581436.20    3435609.12
532    581439.83    3435610.16
532    581440.85    3435606.63
532    581445.41    3435607.45
532    581443.65    3435616.55
532    581442.52    3435624.11
532    581440.36    3435623.72
532    581437.91    3435623.36
532    581438.33    3435620.95
532    581434.69    3435620.32
532    581433.60    3435626.59
532    581437.24    3435627.22
532    581437.63    3435625.02
532    581442.38    3435625.74
532    581441.46    3435630.26
532    581449.37    3435642.42
532    581460.30    3435644.18
532    581459.78    3435647.74
532    581457.24    3435647.31
532    581456.49    3435651.05
532    581462.93    3435652.35
532    581463.69    3435648.61
532    581461.47    3435648.16
532    581462.63    3435644.76
532    581480.86    3435647.29
532    581495.12    3435646.89
532    581495.30    3435646.91
532    581496.51    3435489.65
532    581493.57    3435488.22
532    581486.47    3435481.07
532    581463.04    3435469.76
532    581451.30    3435466.04
532    581449.35    3435463.94
532    581445.27    3435461.95
532    581444.14    3435460.64
532    581438.05    3435455.92
532    581434.78    3435462.87
532    581424.33    3435466.17
532    581428.48    3435478.01
532    581416.68    3435494.29
532    581408.12    3435485.78
532    581406.31    3435484.11
532    581397.10    3435484.48
532    581389.63    3435480.53
532    581375.02    3435478.98
532    581342.39    3435474.37
532    581318.39    3435435.32
533    581498.52    3435228.20
533    581497.03    3435228.10
533    581466.65    3435226.66
533    581432.89    3435225.06
533    581364.45    3435221.82
533    581363.67    3435221.83
533    581365.13    3435222.52
533    581366.26    3435222.96
533    581366.33    3435222.98
533    581366.47    3435223.03
533    581367.97    3435223.42
533    581370.06    3435223.77
533    581373.18    3435224.10
533    581373.32    3435224.11
533    581373.49    3435224.13
533    581381.85    3435224.92
533    581382.15    3435224.95
533    581396.62    3435226.39
533    581396.92    3435226.42
533    581397.42    3435226.48
533    581416.75    3435228.78
533    581421.22    3435229.16
533    581421.72    3435229.19
533    581421.91    3435229.20
533    581429.51    3435229.46
533    581431.02    3435229.61
533    581431.20    3435229.63
533    581431.33    3435229.65
533    581434.45    3435230.18
533    581437.22    3435230.62
533    581437.35    3435230.63
533    581439.96    3435230.79
533    581443.75    3435230.94
533    581444.10    3435230.96
533    581447.26    3435231.33
533    581456.01    3435232.66
533    581458.45    3435232.88
533    581460.54    3435232.90
533    581461.24    3435232.86
533    581461.29    3435232.85
533    581463.13    3435232.58
533    581463.82    3435232.44
533    581463.87    3435232.43
533    581463.92    3435232.42
533    581465.84    3435232.07
533    581465.87    3435232.06
533    581466.02    3435232.05
533    581467.52    3435232.02
533    581469.64    3435232.21
533    581472.68    3435232.54
533    581473.44    3435232.56
533    581473.54    3435232.56
533    581475.49    3435232.44
533    581478.47    3435232.15
533    581478.57    3435232.14
533    581478.76    3435232.13
533    581481.01    3435232.14
533    581484.77    3435232.40
533    581487.78    3435232.63
533    581487.97    3435232.64
533    581488.48    3435232.69
533    581498.48    3435233.60
533    581498.52    3435228.20
534    581186.52    3435148.54
534    581182.14    3435147.06
534    581182.42    3435153.53
534    581182.77    3435160.57
534    581182.78    3435160.85
534    581182.79    3435161.07
534    581183.01    3435172.18
534    581183.02    3435172.43
534    581183.33    3435184.77
534    581183.33    3435185.03
534    581183.33    3435185.27
534    581183.35    3435192.65
534    581183.53    3435195.61
534    581183.73    3435197.34
534    581183.76    3435197.53
534    581184.17    3435199.62
534    581184.69    3435201.49
534    581185.30    3435203.11
534    581185.96    3435204.49
534    581186.65    3435205.63
534    581187.09    3435206.25
534    581187.19    3435206.37
534    581188.04    3435207.32
534    581189.10    3435208.29
534    581190.26    3435209.16
534    581191.49    3435209.92
534    581192.93    3435210.62
534    581193.52    3435210.85
534    581193.77    3435210.95
534    581195.31    3435211.40
534    581197.15    3435211.76
534    581199.56    3435212.02
534    581203.08    3435212.17
534    581206.63    3435212.23
534    581206.90    3435212.24
534    581207.29    3435212.25
534    581212.74    3435212.51
534    581221.23    3435213.15
534    581226.24    3435213.58
534    581226.64    3435213.61
534    581245.98    3435215.22
534    581246.38    3435215.25
534    581246.84    3435215.29
534    581261.49    3435216.28
534    581268.81    3435216.70
534    581269.27    3435216.72
534    581269.80    3435216.75
534    581288.23    3435217.66
534    581294.00    3435218.11
534    581295.58    3435218.27
534    581295.83    3435218.30
534    581298.50    3435218.65
534    581299.11    3435216.31
534    581230.82    3435211.77
534    581200.59    3435209.76
534    581192.65    3435209.23
534    581185.82    3435201.34
534    581186.52    3435148.54
535    581359.63    3435225.70
535    581359.91    3435222.65
535    581360.15    3435220.10
535    581358.28    3435219.63
535    581346.71    3435216.74
535    581346.48    3435224.78
535    581345.98    3435241.59
535    581345.53    3435256.75
535    581351.84    3435257.35
535    581352.08    3435256.37
535    581354.45    3435242.29
535    581357.28    3435225.54
535    581359.63    3435225.70
536    581066.86    3435221.21
536    581059.26    3435246.85
536    581056.02    3435274.40
536    581064.96    3435270.17
536    581065.56    3435269.89
536    581067.57    3435269.02
536    581067.84    3435265.15
536    581068.19    3435261.37
536    581069.47    3435247.30
536    581069.75    3435247.44
536    581069.97    3435247.64
536    581069.99    3435247.66
536    581070.02    3435247.70
536    581070.20    3435248.10
536    581070.31    3435248.77
536    581070.31    3435248.78
536    581070.32    3435248.86
536    581070.66    3435252.42
536    581070.68    3435252.50
536    581070.69    3435252.57
536    581070.70    3435252.65
536    581071.18    3435254.61
536    581071.56    3435256.13
536    581071.58    3435256.21
536    581071.59    3435256.28
536    581071.84    3435257.94
536    581071.90    3435259.52
536    581071.88    3435260.03
536    581071.87    3435260.11
536    581071.87    3435260.17
536    581071.80    3435261.44
536    581071.92    3435261.89
536    581072.04    3435262.06
536    581072.05    3435262.06
536    581072.08    3435262.09
536    581072.41    3435262.27
536    581073.09    3435262.42
536    581073.09    3435262.42
536    581073.14    3435262.43
536    581075.43    3435262.66
536    581075.47    3435262.67
536    581075.55    3435262.68
536    581077.79    3435263.11
536    581078.49    3435263.10
536    581078.91    3435262.95
536    581079.07    3435262.83
536    581079.10    3435262.80
536    581079.38    3435262.41
536    581079.59    3435261.87
536    581079.60    3435261.83
536    581079.62    3435261.76
536    581079.79    3435260.83
536    581079.83    3435259.31
536    581079.81    3435258.51
536    581079.81    3435258.43
536    581079.80    3435255.83
536    581079.94    3435254.63
536    581080.05    3435254.20
536    581080.06    3435254.15
536    581080.40    3435253.32
536    581080.86    3435252.56
536    581081.34    3435252.04
536    581081.38    3435252.01
536    581081.51    3435251.90
536    581082.09    3435251.56
536    581083.06    3435251.21
536    581084.63    3435250.87
536    581090.02    3435250.00
536    581090.12    3435249.98
536    581093.21    3435249.25
536    581094.74    3435248.86
536    581094.84    3435248.83
536    581094.88    3435248.82
536    581097.17    3435248.26
536    581097.18    3435248.26
536    581099.36    3435247.46
536    581099.47    3435247.43
536    581104.57    3435246.29
536    581104.90    3435246.23
536    581104.99    3435246.21
536    581107.65    3435245.79
536    581109.25    3435245.64
536    581109.34    3435245.64
536    581109.44    3435245.63
536    581111.67    3435245.65
536    581114.19    3435245.87
536    581114.39    3435245.90
536    581114.46    3435245.91
536    581116.07    3435246.20
536    581117.15    3435246.55
536    581117.74    3435246.84
536    581117.81    3435246.88
536    581117.85    3435246.90
536    581118.40    3435247.30
536    581118.70    3435247.69
536    581118.73    3435247.73
536    581118.74    3435247.76
536    581118.76    3435247.81
536    581118.85    3435248.28
536    581118.76    3435250.07
536    581118.87    3435250.46
536    581118.89    3435250.50
536    581118.92    3435250.54
536    581119.21    3435250.84
536    581119.72    3435251.11
536    581120.24    3435251.26
536    581120.27    3435251.27
536    581120.39    3435251.29
536    581121.31    3435251.36
536    581122.43    3435251.22
536    581123.83    3435250.84
536    581125.64    3435250.23
536    581125.74    3435250.19
536    581125.84    3435250.16
536    581129.64    3435249.03
536    581130.77    3435248.56
536    581130.85    3435248.52
536    581132.94    3435247.50
536    581133.72    3435247.27
536    581134.31    3435247.26
536    581134.59    3435247.33
536    581134.66    3435247.36
536    581134.70    3435247.38
536    581135.19    3435247.69
536    581136.19    3435248.51
536    581136.54    3435248.67
536    581136.56    3435248.68
536    581136.63    3435248.70
536    581137.13    3435248.74
536    581137.71    3435248.61
536    581138.37    3435248.29
536    581138.97    3435247.85
536    581139.48    3435247.31
536    581139.76    3435246.85
536    581139.81    3435246.76
536    581139.97    3435246.18
536    581139.98    3435245.38
536    581139.79    3435244.46
536    581139.41    3435243.43
536    581138.80    3435242.22
536    581138.57    3435241.84
536    581138.52    3435241.76
536    581137.29    3435239.79
536    581136.95    3435239.01
536    581136.82    3435238.34
536    581136.82    3435238.26
536    581136.81    3435238.21
536    581136.89    3435237.47
536    581136.94    3435237.27
536    581136.95    3435237.23
536    581136.98    3435237.12
536    581137.32    3435236.30
536    581137.85    3435235.46
536    581138.64    3435234.49
536    581139.84    3435233.28
536    581140.34    3435232.82
536    581140.38    3435232.79
536    581141.05    3435232.27
536    581141.42    3435232.10
536    581141.44    3435232.09
536    581141.49    3435232.07
536    581142.07    3435231.96
536    581142.62    3435232.02
536    581142.80    3435232.09
536    581142.82    3435232.10
536    581142.86    3435232.13
536    581143.16    3435232.40
536    581143.41    3435232.86
536    581143.98    3435234.43
536    581144.03    3435234.54
536    581144.06    3435234.59
536    581144.09    3435234.63
536    581144.45    3435235.06
536    581144.97    3435235.46
536    581145.66    3435235.79
536    581145.81    3435235.84
536    581145.81    3435235.84
536    581145.87    3435235.86
536    581146.72    3435236.05
536    581147.71    3435236.08
536    581148.59    3435235.93
536    581148.71    3435235.89
536    581148.78    3435235.87
536    581149.63    3435235.51
536    581150.35    3435235.05
536    581150.83    3435234.60
536    581151.90    3435233.61
536    581153.18    3435232.95
536    581153.74    3435232.37
536    581154.14    3435231.70
536    581155.43    3435229.70
536    581156.79    3435226.66
536    581158.15    3435221.30
536    581158.70    3435140.72
536    581158.78    3435128.61
536    581158.91    3435127.34
536    581171.46    3435128.36
536    581178.14    3435128.90
536    581178.39    3435126.67
536    581178.39    3435126.65
536    581179.15    3435126.71
536    581182.25    3435126.96
536    581182.90    3435119.00
536    581156.14    3435114.86
536    581155.58    3435124.69
536    581154.97    3435127.02
536    581139.55    3435186.02
536    581140.29    3435197.97
536    581137.37    3435203.51
536    581134.77    3435205.80
536    581131.36    3435209.07
536    581131.74    3435218.46
536    581071.88    3435221.00
536    581066.86    3435221.21
537    581075.04    3435105.90
537    581079.50    3435106.07
537    581113.80    3435107.41
537    581134.62    3435109.35
537    581156.34    3435111.38
537    581156.14    3435114.86
537    581171.91    3435117.30
537    581182.90    3435119.00
537    581183.59    3435110.55
537    581184.52    3435110.62
537    581184.54    3435110.53
537    581184.94    3435109.38
537    581172.09    3435108.34
537    581156.41    3435107.07
537    581156.48    3435103.15
537    581156.47    3435102.56
537    581156.47    3435102.44
537    581156.46    3435102.23
537    581156.29    3435098.85
537    581155.90    3435094.85
537    581155.50    3435091.91
537    581155.48    3435091.77
537    581154.93    3435088.62
537    581154.36    3435086.30
537    581154.13    3435085.54
537    581154.09    3435085.41
537    581154.04    3435085.26
537    581153.32    3435083.35
537    581152.33    3435081.20
537    581151.00    3435078.67
537    581150.84    3435078.39
537    581150.76    3435078.26
537    581150.65    3435078.06
537    581148.89    3435075.12
537    581147.13    3435072.45
537    581145.51    3435070.25
537    581144.36    3435068.84
537    581144.24    3435068.70
537    581142.70    3435067.06
537    581140.79    3435065.24
537    581138.79    3435063.52
537    581137.61    3435062.59
537    581137.46    3435062.48
537    581137.14    3435062.24
537    581134.86    3435060.64
537    581131.50    3435058.50
537    581126.35    3435055.44
537    581120.81    3435052.26
537    581120.46    3435052.06
537    581120.18    3435051.90
537    581112.71    3435047.57
537    581109.05    3435045.31
537    581106.59    3435043.64
537    581106.32    3435043.44
537    581106.10    3435043.28
537    581103.74    3435041.43
537    581101.03    3435039.12
537    581098.22    3435036.52
537    581096.27    3435034.59
537    581096.08    3435034.39
537    581095.97    3435034.27
537    581093.87    3435031.99
537    581091.99    3435029.74
537    581090.91    3435028.31
537    581090.82    3435028.18
537    581090.68    3435027.99
537    581089.21    3435025.79
537    581087.61    3435023.10
537    581086.01    3435020.13
537    581084.86    3435017.75
537    581084.75    3435017.52
537    581083.46    3435014.46
537    581082.02    3435010.64
537    581080.73    3435006.77
537    581080.43    3435005.79
537    581080.33    3435005.46
537    581079.27    3435001.49
537    581078.93    3435000.02
537    581078.02    3434996.14
537    581077.39    3434992.98
537    581067.71    3435001.59
537    581060.95    3435004.69
537    581055.29    3435007.29
537    581053.84    3435030.35
537    581073.04    3435057.20
537    581073.43    3435060.60
537    581076.04    3435082.41
537    581075.27    3435100.50
537    581075.04    3435105.90
538    581075.12    3434976.29
538    581075.61    3434981.52
538    581075.63    3434981.51
538    581075.66    3434981.91
538    581075.68    3434982.12
538    581075.76    3434982.73
538    581076.04    3434984.65
538    581087.64    3434982.95
538    581096.91    3434981.58
538    581096.87    3434981.41
538    581096.87    3434981.40
538    581096.47    3434979.36
538    581096.38    3434978.89
538    581095.87    3434978.96
538    581094.45    3434970.65
538    581085.85    3434973.16
538    581075.12    3434976.29
539    581067.98    3434971.12
539    581070.88    3434974.38
539    581075.12    3434976.29
539    581085.85    3434973.16
539    581094.45    3434970.65
539    581093.11    3434962.81
539    581094.33    3434962.66
539    581095.21    3434962.35
539    581095.11    3434961.63
539    581084.05    3434963.26
539    581072.96    3434964.89
539    581072.65    3434962.98
539    581072.64    3434962.93
539    581072.61    3434962.74
539    581071.35    3434953.69
539    581071.32    3434953.50
539    581071.29    3434953.31
539    581071.26    3434953.17
539    581070.63    3434950.21
539    581069.92    3434947.58
539    581069.57    3434946.48
539    581069.52    3434946.35
539    581069.46    3434946.18
539    581068.55    3434943.85
539    581067.37    3434941.24
539    581066.06    3434938.70
539    581065.79    3434938.23
539    581065.69    3434938.04
539    581064.02    3434935.28
539    581060.07    3434929.14
539    581059.96    3434928.96
539    581056.85    3434923.84
539    581054.54    3434919.98
539    581054.39    3434919.74
539    581049.82    3434912.43
539    581047.06    3434908.07
539    581046.91    3434907.83
539    581046.75    3434907.57
539    581041.40    3434899.01
539    581039.13    3434895.18
539    581038.96    3434894.89
539    581036.52    3434890.40
539    581031.32    3434880.42
539    581031.16    3434880.12
539    581031.06    3434879.93
539    581027.34    3434872.85
539    581026.30    3434870.71
539    581026.21    3434870.51
539    581026.09    3434870.25
539    581024.63    3434866.81
539    581024.27    3434865.91
539    581009.09    3434870.22
539    580999.62    3434872.91
539    581008.42    3434887.48
539    581009.28    3434896.01
539    581015.97    3434920.37
539    581030.76    3434943.18
539    581033.91    3434964.71
539    581035.72    3434968.29
539    581036.01    3434968.88
539    581041.15    3434969.52
539    581048.40    3434969.95
539    581067.98    3434971.12
540    581010.66    3434826.55
540    581013.25    3434833.92
540    581032.48    3434826.56
540    581032.61    3434826.31
540    581032.60    3434826.30
540    581032.44    3434826.36
540    581027.49    3434816.53
540    581010.66    3434826.55
541    581027.49    3434816.53
541    581023.49    3434808.60
541    581013.47    3434812.49
541    581006.65    3434815.14
541    581010.66    3434826.55
541    581018.35    3434821.97
541    581027.49    3434816.53
542    580915.96    3435591.02
542    580922.87    3435594.11
542    580921.84    3435606.83
542    580921.32    3435613.03
542    580921.95    3435612.07
542    580923.97    3435608.87
542    580925.59    3435609.01
542    580926.84    3435608.80
542    580927.83    3435607.82
542    580928.28    3435606.58
542    580927.75    3435604.92
542    580926.69    3435603.54
542    580933.49    3435589.61
542    580936.29    3435580.43
542    580937.66    3435580.35
542    580938.71    3435579.94
542    580939.86    3435578.82
542    580940.02    3435577.26
542    580939.23    3435575.73
542    580937.90    3435574.60
542    580940.52    3435567.75
542    580943.39    3435559.17
542    580945.31    3435549.49
542    580946.69    3435549.10
542    580947.51    3435548.38
542    580948.11    3435547.11
542    580948.09    3435545.73
542    580947.23    3435544.45
542    580945.83    3435543.60
542    580946.39    3435533.63
542    580946.41    3435526.21
542    580945.60    3435515.55
542    580947.34    3435514.66
542    580948.05    3435513.78
542    580948.21    3435512.70
542    580947.75    3435511.08
542    580946.85    3435510.25
542    580945.00    3435509.85
542    580945.02    3435501.23
542    580945.29    3435500.02
542    580946.24    3435496.48
542    580947.21    3435493.58
542    580948.92    3435494.24
542    580949.81    3435494.31
542    580950.75    3435493.97
542    580951.62    3435493.38
542    580952.25    3435492.34
542    580952.45    3435491.01
542    580951.68    3435489.26
542    580957.83    3435481.27
542    580963.19    3435473.56
542    580959.62    3435471.90
542    580944.64    3435483.88
542    580939.31    3435486.12
542    580937.51    3435492.42
542    580936.39    3435493.32
542    580937.72    3435496.50
542    580932.93    3435497.73
542    580931.14    3435498.19
542    580926.27    3435501.41
542    580924.67    3435510.80
542    580921.12    3435512.79
542    580916.15    3435515.57
542    580914.70    3435522.22
542    580919.26    3435528.65
542    580921.54    3435533.76
542    580925.41    3435537.11
542    580928.89    3435540.09
542    580926.98    3435563.80
542    580923.16    3435567.10
542    580915.96    3435591.02
543    580860.58    3435624.66
543    580858.58    3435637.98
543    580886.49    3435645.49
543    580888.74    3435648.20
543    580895.22    3435650.10
543    580894.64    3435655.73
543    580894.41    3435658.07
543    580901.07    3435662.18
543    580903.44    3435665.03
543    580902.32    3435675.98
543    580892.81    3435680.11
543    580892.27    3435695.97
543    580894.57    3435693.04
543    580898.48    3435688.61
543    580903.56    3435680.42
543    580906.81    3435674.44
543    580909.09    3435668.69
543    580910.09    3435664.07
543    580910.60    3435659.20
543    580911.09    3435652.95
543    580911.36    3435637.47
543    580911.01    3435630.11
543    580912.60    3435630.29
543    580913.61    3435629.93
543    580914.80    3435628.95
543    580915.34    3435627.40
543    580914.92    3435626.39
543    580913.61    3435624.76
543    580919.43    3435615.91
543    580909.14    3435615.17
543    580905.84    3435626.12
543    580860.58    3435624.66
544    581120.34    3435582.15
544    581122.07    3435585.88
544    581122.70    3435588.32
544    581123.64    3435591.98
544    581123.73    3435592.34
544    581123.76    3435592.33
544    581147.58    3435577.40
544    581177.47    3435558.20
544    581177.41    3435558.17
544    581177.34    3435558.12
544    581177.25    3435558.06
544    581176.81    3435557.67
544    581176.37    3435557.07
544    581176.31    3435556.94
544    581175.64    3435555.89
544    581175.53    3435555.73
544    581175.23    3435555.75
544    581172.35    3435554.26
544    581170.47    3435551.33
544    581120.34    3435582.15
545    581168.67    3435543.06
545    581113.84    3435575.24
545    581114.43    3435576.51
545    581114.44    3435577.49
545    581116.13    3435580.79
545    581116.54    3435580.51
545    581118.86    3435578.98
545    581120.34    3435582.15
545    581170.47    3435551.33
545    581170.04    3435550.67
545    581168.27    3435547.92
545    581169.86    3435546.91
545    581169.15    3435545.50
545    581168.54    3435544.29
545    581168.57    3435543.80
545    581168.67    3435543.06
546    581270.70    3435286.42
546    581269.61    3435289.13
546    581265.91    3435297.43
546    581265.80    3435297.70
546    581265.73    3435297.85
546    581263.82    3435302.65
546    581262.89    3435305.05
546    581262.83    3435305.21
546    581262.78    3435305.35
546    581260.15    3435312.16
546    581260.10    3435312.30
546    581260.03    3435312.49
546    581257.43    3435320.09
546    581256.66    3435322.01
546    581256.61    3435322.11
546    581255.16    3435325.32
546    581254.74    3435326.59
546    581254.61    3435327.24
546    581254.60    3435327.33
546    581254.52    3435328.53
546    581254.64    3435329.93
546    581254.93    3435331.21
546    581255.00    3435331.46
546    581255.03    3435331.54
546    581255.09    3435331.72
546    581255.65    3435333.08
546    581255.84    3435333.44
546    581252.49    3435339.52
546    581250.69    3435341.23
546    581245.39    3435344.98
546    581245.25    3435344.93
546    581238.44    3435342.75
546    581237.77    3435342.18
546    581236.77    3435343.94
546    581236.03    3435345.45
546    581235.96    3435345.93
546    581236.32    3435351.26
546    581237.26    3435352.98
546    581238.86    3435355.35
546    581240.64    3435357.06
546    581242.33    3435358.31
546    581242.24    3435360.71
546    581241.45    3435360.61
546    581240.50    3435363.34
546    581240.25    3435369.05
546    581233.82    3435368.49
546    581224.60    3435367.69
546    581223.88    3435370.82
546    581223.48    3435372.59
546    581244.82    3435376.50
546    581247.22    3435369.66
546    581248.67    3435365.53
546    581258.02    3435362.56
546    581283.31    3435335.30
546    581276.11    3435310.19
546    581285.86    3435301.35
546    581270.70    3435286.42
547    581239.32    3435392.18
547    581242.89    3435392.62
547    581243.64    3435389.42
547    581245.25    3435382.54
547    581244.82    3435376.50
547    581239.98    3435375.61
547    581233.57    3435374.43
547    581223.48    3435372.59
547    581221.87    3435387.53
547    581232.97    3435388.49
547    581239.45    3435389.06
547    581239.32    3435392.18
548    580804.59    3435937.67
548    580810.48    3435947.90
548    580821.76    3435947.97
548    580816.45    3435939.23
548    580817.76    3435938.61
548    580818.01    3435938.30
548    580817.92    3435937.93
548    580816.21    3435935.20
548    580814.26    3435930.54
548    580813.95    3435928.87
548    580804.59    3435937.67
549    580690.35    3435877.15
549    580693.35    3435880.13
549    580697.89    3435892.87
549    580698.92    3435911.69
549    580699.53    3435922.81
549    580700.65    3435928.66
549    580706.90    3435931.45
549    580718.14    3435935.06
549    580742.92    3435943.09
549    580742.88    3435943.21
549    580745.45    3435943.75
549    580772.24    3435946.85
549    580781.96    3435947.73
549    580783.44    3435947.74
549    580793.24    3435943.89
549    580791.61    3435941.56
549    580794.30    3435941.31
549    580798.27    3435947.83
549    580810.48    3435947.90
549    580806.71    3435941.36
549    580804.59    3435937.67
549    580792.92    3435939.03
549    580778.83    3435940.68
549    580771.36    3435939.21
549    580763.44    3435937.39
549    580745.12    3435935.48
549    580722.86    3435929.41
549    580717.16    3435925.89
549    580708.92    3435920.79
549    580708.73    3435917.45
549    580707.74    3435902.04
549    580706.62    3435899.12
549    580704.36    3435883.57
549    580703.92    3435880.57
549    580702.30    3435877.82
549    580697.67    3435877.56
549    580690.35    3435877.15
550    580530.24    3435811.73
550    580537.74    3435829.64
550    580551.50    3435833.22
550    580543.19    3435813.44
550    580542.90    3435812.91
550    580530.24    3435811.73
551    580530.24    3435811.73
551    580520.40    3435810.82
551    580527.12    3435826.82
551    580537.74    3435829.64
551    580530.24    3435811.73
552    580298.08    3435542.25
552    580296.02    3435531.94
552    580291.77    3435528.89
552    580287.84    3435523.41
552    580286.30    3435515.17
552    580285.78    3435513.14
552    580280.69    3435505.12
552    580282.39    3435496.53
552    580291.68    3435494.07
552    580293.54    3435486.32
552    580283.76    3435490.13
552    580283.91    3435492.03
552    580271.65    3435497.29
552    580272.71    3435500.02
552    580273.72    3435502.66
552    580273.42    3435502.78
552    580275.67    3435508.47
552    580272.06    3435509.77
552    580249.29    3435518.86
552    580246.96    3435516.32
552    580245.14    3435514.68
552    580243.55    3435513.31
552    580241.52    3435511.88
552    580239.06    3435510.33
552    580235.12    3435508.53
552    580231.16    3435507.12
552    580228.05    3435506.29
552    580223.07    3435506.05
552    580218.26    3435506.48
552    580213.70    3435507.55
552    580210.04    3435508.87
552    580207.01    3435510.38
552    580203.81    3435512.27
552    580201.83    3435513.82
552    580198.84    3435516.61
552    580195.02    3435521.57
552    580192.39    3435526.57
552    580191.47    3435528.69
552    580191.44    3435528.79
552    580190.46    3435532.44
552    580190.23    3435533.54
552    580190.21    3435533.64
552    580190.19    3435533.75
552    580189.89    3435535.93
552    580189.68    3435538.94
552    580189.66    3435539.40
552    580189.66    3435539.49
552    580189.69    3435542.36
552    580189.80    3435543.78
552    580189.81    3435543.87
552    580189.82    3435543.98
552    580190.17    3435546.10
552    580190.75    3435548.51
552    580190.89    3435549.03
552    580190.92    3435549.13
552    580190.95    3435549.23
552    580191.70    3435551.35
552    580192.68    3435553.71
552    580192.72    3435553.80
552    580192.77    3435553.89
552    580192.80    3435553.97
552    580193.85    3435555.99
552    580194.67    3435557.40
552    580194.71    3435557.47
552    580194.74    3435557.51
552    580195.93    3435559.24
552    580196.08    3435559.44
552    580196.10    3435559.47
552    580196.16    3435559.55
552    580197.72    3435561.49
552    580199.13    3435563.05
552    580199.20    3435563.11
552    580199.25    3435563.17
552    580200.74    3435564.55
552    580201.85    3435565.50
552    580201.90    3435565.54
552    580201.96    3435565.59
552    580203.87    3435567.10
552    580204.78    3435567.73
552    580204.85    3435567.76
552    580204.92    3435567.81
552    580206.54    3435568.72
552    580208.41    3435569.69
552    580213.81    3435571.80
552    580210.43    3435584.42
552    580213.06    3435585.15
552    580213.13    3435585.16
552    580216.46    3435585.76
552    580216.68    3435585.80
552    580216.76    3435585.80
552    580216.84    3435585.82
552    580219.28    3435586.04
552    580221.03    3435586.12
552    580221.12    3435586.12
552    580221.27    3435586.12
552    580225.01    3435586.10
552    580228.13    3435585.91
552    580228.43    3435585.88
552    580228.58    3435585.86
552    580228.67    3435585.85
552    580231.19    3435585.45
552    580232.84    3435585.12
552    580232.93    3435585.10
552    580233.02    3435585.08
552    580236.32    3435584.32
552    580237.26    3435584.05
552    580237.34    3435584.03
552    580239.54    3435583.27
552    580241.37    3435582.54
552    580241.45    3435582.50
552    580241.56    3435582.45
552    580244.00    3435581.30
552    580246.37    3435580.02
552    580246.58    3435579.90
552    580246.68    3435579.84
552    580246.79    3435579.77
552    580248.85    3435578.44
552    580251.16    3435576.78
552    580251.98    3435576.14
552    580252.07    3435576.07
552    580254.01    3435574.40
552    580255.95    3435572.55
552    580256.19    3435572.30
552    580256.27    3435572.21
552    580256.36    3435572.13
552    580258.01    3435570.28
552    580260.02    3435567.80
552    580260.10    3435567.70
552    580260.14    3435567.65
552    580262.23    3435564.83
552    580262.28    3435564.77
552    580262.30    3435564.73
552    580263.51    3435563.01
552    580263.53    3435562.99
552    580263.59    3435562.88
552    580264.35    3435561.50
552    580265.26    3435559.45
552    580266.14    3435557.11
552    580266.18    3435556.99
552    580266.22    3435556.87
552    580267.24    3435553.53
552    580267.94    3435551.13
552    580267.98    3435551.01
552    580268.99    3435546.47
552    580276.98    3435547.70
552    580278.49    3435547.93
552    580278.47    3435548.04
552    580277.55    3435553.19
552    580277.53    3435553.30
552    580277.52    3435553.39
552    580277.00    3435557.13
552    580276.96    3435557.57
552    580276.95    3435557.66
552    580276.93    3435557.85
552    580276.36    3435564.29
552    580276.04    3435566.15
552    580275.86    3435566.87
552    580275.81    3435567.05
552    580275.78    3435567.14
552    580275.26    3435568.49
552    580274.48    3435570.04
552    580273.73    3435571.29
552    580273.68    3435571.37
552    580273.59    3435571.50
552    580272.20    3435573.44
552    580270.36    3435575.95
552    580269.60    3435577.19
552    580269.46    3435577.45
552    580269.43    3435577.50
552    580268.96    3435578.58
552    580268.64    3435579.70
552    580268.59    3435579.98
552    580268.58    3435580.04
552    580268.58    3435580.09
552    580268.52    3435581.05
552    580268.63    3435581.76
552    580268.83    3435582.20
552    580268.89    3435582.28
552    580268.92    3435582.31
552    580268.95    3435582.34
552    580269.44    3435582.78
552    580269.97    3435583.24
552    580270.03    3435583.32
552    580270.05    3435583.35
552    580270.07    3435583.39
552    580270.27    3435583.89
552    580270.47    3435584.63
552    580270.48    3435584.65
552    580270.51    3435584.71
552    580270.82    3435585.29
552    580271.86    3435586.76
552    580272.04    3435587.18
552    580272.06    3435587.24
552    580272.15    3435587.96
552    580272.05    3435590.28
552    580272.16    3435590.81
552    580272.18    3435590.88
552    580272.44    3435591.34
552    580272.91    3435591.85
552    580274.02    3435592.75
552    580274.67    3435593.28
552    580274.73    3435593.33
552    580274.80    3435593.40
552    580275.44    3435594.10
552    580276.07    3435595.02
552    580276.61    3435596.09
552    580277.00    3435597.22
552    580277.02    3435597.31
552    580277.05    3435597.42
552    580277.27    3435598.81
552    580277.60    3435602.21
552    580277.77    3435603.00
552    580277.80    3435603.11
552    580277.83    3435603.22
552    580278.25    3435604.30
552    580279.85    3435607.56
552    580280.13    3435608.33
552    580280.16    3435608.44
552    580280.19    3435608.56
552    580280.42    3435609.80
552    580280.78    3435613.08
552    580281.05    3435614.14
552    580281.23    3435614.57
552    580281.28    3435614.67
552    580281.72    3435615.35
552    580282.44    3435616.14
552    580283.46    3435617.02
552    580284.99    3435618.11
552    580285.72    3435618.59
552    580285.90    3435618.71
552    580288.73    3435620.41
552    580291.94    3435622.17
552    580294.15    3435623.23
552    580294.53    3435623.40
552    580294.72    3435623.48
552    580294.86    3435623.53
552    580299.23    3435625.18
552    580300.40    3435625.77
552    580301.21    3435626.33
552    580301.42    3435626.52
552    580301.52    3435626.61
552    580302.14    3435627.33
552    580302.73    3435628.27
552    580303.35    3435629.55
552    580303.96    3435631.18
552    580304.37    3435632.71
552    580304.39    3435632.85
552    580304.43    3435633.03
552    580304.66    3435634.84
552    580304.77    3435637.73
552    580304.85    3435641.90
552    580304.86    3435642.15
552    580305.14    3435645.89
552    580305.58    3435649.62
552    580305.98    3435651.81
552    580306.37    3435653.23
552    580306.63    3435653.92
552    580306.72    3435654.15
552    580306.74    3435654.19
552    580307.32    3435655.25
552    580307.45    3435655.46
552    580307.49    3435655.52
552    580308.50    3435656.92
552    580309.73    3435658.59
552    580310.71    3435660.02
552    580310.81    3435660.18
552    580312.28    3435662.53
552    580312.31    3435662.58
552    580312.35    3435662.65
552    580314.23    3435665.92
552    580314.27    3435665.98
552    580314.37    3435666.15
552    580316.18    3435668.94
552    580318.32    3435672.21
552    580319.19    3435673.74
552    580319.44    3435674.26
552    580319.54    3435674.48
552    580320.13    3435676.01
552    580320.88    3435678.50
552    580321.62    3435681.48
552    580322.01    3435683.55
552    580322.14    3435685.15
552    580322.14    3435685.38
552    580322.13    3435685.61
552    580322.12    3435685.69
552    580321.93    3435687.14
552    580321.55    3435689.37
552    580321.52    3435689.71
552    580321.52    3435689.77
552    580321.56    3435690.42
552    580321.58    3435690.51
552    580321.59    3435690.55
552    580321.61    3435690.59
552    580321.85    3435690.93
552    580322.34    3435691.30
552    580322.86    3435691.60
552    580322.89    3435691.61
552    580322.94    3435691.64
552    580323.96    3435692.30
552    580324.60    3435692.87
552    580324.96    3435693.36
552    580325.02    3435693.48
552    580325.25    3435694.11
552    580325.37    3435695.10
552    580325.30    3435696.60
552    580324.87    3435700.38
552    580324.86    3435700.69
552    580324.85    3435700.85
552    580324.85    3435700.90
552    580324.95    3435702.25
552    580325.19    3435703.39
552    580325.26    3435703.60
552    580325.30    3435703.72
552    580325.77    3435704.80
552    580327.62    3435708.18
552    580328.05    3435709.26
552    580328.08    3435709.38
552    580328.12    3435709.50
552    580328.14    3435709.60
552    580328.28    3435710.70
552    580328.27    3435712.56
552    580328.18    3435714.67
552    580328.18    3435714.76
552    580328.26    3435716.63
552    580328.48    3435718.04
552    580328.71    3435718.83
552    580328.74    3435718.92
552    580329.19    3435719.87
552    580329.94    3435721.08
552    580331.00    3435722.54
552    580331.06    3435722.61
552    580331.09    3435722.66
552    580332.20    3435724.20
552    580332.64    3435725.01
552    580332.66    3435725.06
552    580332.70    3435725.17
552    580333.01    3435726.13
552    580333.23    3435727.49
552    580333.40    3435729.93
552    580333.43    3435730.75
552    580333.43    3435730.83
552    580333.48    3435733.96
552    580333.44    3435734.66
552    580333.44    3435734.71
552    580333.35    3435734.94
552    580333.16    3435735.54
552    580333.25    3435736.53
552    580333.35    3435736.95
552    580333.65    3435737.77
552    580333.66    3435737.81
552    580333.69    3435737.87
552    580333.93    3435738.67
552    580334.10    3435739.93
552    580334.17    3435741.23
552    580334.17    3435741.30
552    580334.17    3435741.42
552    580334.40    3435746.29
552    580334.38    3435747.11
552    580334.37    3435747.23
552    580334.36    3435747.34
552    580334.11    3435749.42
552    580333.54    3435752.89
552    580333.52    3435753.01
552    580333.50    3435753.15
552    580332.69    3435759.53
552    580332.65    3435759.81
552    580332.62    3435759.94
552    580332.61    3435760.01
552    580331.86    3435763.27
552    580331.69    3435763.69
552    580330.79    3435762.91
552    580330.03    3435762.61
552    580326.71    3435762.44
552    580324.16    3435763.21
552    580322.32    3435763.87
552    580320.93    3435763.01
552    580313.89    3435765.07
552    580313.05    3435765.53
552    580316.20    3435776.51
552    580317.33    3435780.53
552    580322.19    3435779.14
552    580322.86    3435781.08
552    580326.60    3435779.99
552    580326.49    3435778.95
552    580326.77    3435777.95
552    580327.80    3435778.72
552    580329.08    3435778.98
552    580330.69    3435778.80
552    580331.85    3435778.01
552    580332.92    3435776.94
552    580333.38    3435775.23
552    580333.52    3435775.22
552    580333.93    3435776.28
552    580334.56    3435778.90
552    580335.69    3435780.71
552    580336.65    3435783.40
552    580336.88    3435785.63
552    580335.86    3435787.37
552    580335.50    3435788.43
552    580335.34    3435788.78
552    580334.72    3435790.17
552    580334.65    3435790.31
552    580334.63    3435790.34
552    580334.60    3435790.39
552    580333.95    3435791.65
552    580333.80    3435792.22
552    580333.79    3435792.27
552    580333.79    3435792.28
552    580333.79    3435792.33
552    580333.86    3435792.93
552    580334.01    3435793.36
552    580334.05    3435793.45
552    580334.46    3435794.09
552    580335.18    3435794.87
552    580336.22    3435795.76
552    580337.18    3435796.41
552    580337.43    3435796.55
552    580337.52    3435796.59
552    580337.57    3435796.62
552    580338.37    3435796.91
552    580339.21    3435797.05
552    580339.24    3435797.06
552    580339.30    3435797.06
552    580340.22    3435796.98
552    580341.24    3435796.72
552    580341.98    3435796.40
552    580342.03    3435796.37
552    580342.08    3435796.35
552    580342.82    3435795.83
552    580343.85    3435794.88
552    580343.92    3435794.81
552    580343.95    3435794.79
552    580343.98    3435794.75
552    580345.18    3435793.59
552    580345.73    3435793.18
552    580345.74    3435793.17
552    580345.79    3435793.15
552    580346.37    3435792.87
552    580346.74    3435792.82
552    580346.75    3435792.82
552    580346.79    3435792.83
552    580347.07    3435792.98
552    580347.36    3435793.34
552    580347.78    3435794.21
552    580348.24    3435795.16
552    580350.82    3435794.10
552    580352.37    3435790.98
552    580356.93    3435788.58
552    580361.60    3435786.60
552    580363.26    3435787.60
552    580368.67    3435790.80
552    580372.66    3435792.46
552    580374.44    3435793.21
552    580374.45    3435793.23
552    580376.38    3435794.04
552    580377.66    3435795.24
552    580378.35    3435796.07
552    580378.40    3435796.13
552    580378.93    3435796.97
552    580379.35    3435797.88
552    580379.46    3435798.30
552    580378.06    3435800.99
552    580377.21    3435801.33
552    580376.63    3435801.48
552    580376.56    3435801.49
552    580376.46    3435801.51
552    580375.45    3435801.55
552    580374.01    3435801.37
552    580371.99    3435801.05
552    580371.91    3435801.04
552    580370.41    3435800.99
552    580369.30    3435801.11
552    580368.53    3435801.34
552    580368.17    3435801.54
552    580368.05    3435801.64
552    580367.64    3435802.10
552    580367.28    3435802.84
552    580366.97    3435803.85
552    580366.67    3435805.51
552    580366.42    3435807.85
552    580366.36    3435810.05
552    580366.37    3435810.25
552    580366.38    3435810.45
552    580366.38    3435810.51
552    580366.53    3435811.63
552    580366.74    3435812.23
552    580366.95    3435812.52
552    580366.99    3435812.57
552    580367.39    3435812.85
552    580368.00    3435813.06
552    580369.22    3435813.24
552    580370.23    3435813.35
552    580370.29    3435813.36
552    580371.58    3435813.73
552    580376.13    3435814.92
552    580376.75    3435815.11
552    580379.20    3435815.52
552    580379.29    3435815.55
552    580380.94    3435816.15
552    580382.16    3435816.74
552    580383.14    3435817.36
552    580383.44    3435817.60
552    580383.51    3435817.67
552    580383.58    3435817.72
552    580384.53    3435818.69
552    580385.53    3435819.71
552    580386.19    3435820.20
552    580386.55    3435820.39
552    580386.63    3435820.43
552    580386.67    3435820.44
552    580387.36    3435820.62
552    580388.18    3435820.66
552    580388.72    3435820.58
552    580388.74    3435820.58
552    580388.82    3435820.55
552    580389.47    3435820.30
552    580390.14    3435819.87
552    580390.96    3435819.15
552    580392.20    3435817.82
552    580392.26    3435817.75
552    580392.31    3435817.70
552    580393.45    3435816.54
552    580396.00    3435815.39
552    580397.08    3435815.51
552    580398.21    3435815.81
552    580399.80    3435816.45
552    580401.62    3435817.36
552    580403.39    3435818.40
552    580404.83    3435819.42
552    580405.76    3435820.23
552    580405.88    3435820.35
552    580406.76    3435821.35
552    580407.93    3435822.96
552    580409.45    3435825.10
552    580410.30    3435826.08
552    580410.90    3435826.63
552    580410.96    3435826.68
552    580411.80    3435827.26
552    580412.78    3435827.77
552    580413.81    3435828.15
552    580414.42    3435828.29
552    580414.60    3435828.32
552    580415.71    3435828.40
552    580417.38    3435828.29
552    580422.65    3435827.50
552    580423.59    3435827.44
552    580423.78    3435827.44
552    580423.88    3435827.44
552    580425.84    3435827.57
552    580428.10    3435827.73
552    580428.81    3435827.71
552    580428.91    3435827.70
552    580429.02    3435827.69
552    580430.20    3435827.46
552    580431.36    3435827.06
552    580432.48    3435826.53
552    580433.44    3435825.91
552    580433.98    3435825.47
552    580434.02    3435825.44
552    580435.39    3435824.14
552    580435.91    3435823.82
552    580435.96    3435823.80
552    580436.04    3435823.77
552    580436.57    3435823.66
552    580437.32    3435823.72
552    580438.31    3435824.01
552    580440.93    3435825.11
552    580441.07    3435825.17
552    580442.52    3435825.63
552    580444.09    3435825.97
552    580445.49    3435826.11
552    580446.71    3435826.06
552    580447.62    3435825.86
552    580447.74    3435825.81
552    580447.87    3435825.77
552    580447.96    3435825.73
552    580448.77    3435825.27
552    580449.97    3435824.37
552    580451.26    3435823.39
552    580452.09    3435822.94
552    580452.18    3435822.90
552    580452.28    3435822.86
552    580452.34    3435822.83
552    580453.21    3435822.62
552    580454.62    3435822.50
552    580455.69    3435822.46
552    580455.76    3435822.46
552    580456.04    3435822.44
552    580458.25    3435822.19
552    580461.78    3435821.57
552    580469.05    3435820.06
552    580469.32    3435820.01
552    580469.50    3435819.97
552    580475.41    3435818.67
552    580477.80    3435818.01
552    580477.97    3435817.95
552    580478.12    3435817.90
552    580480.39    3435817.07
552    580484.26    3435815.41
552    580485.31    3435814.95
552    580485.46    3435814.88
552    580485.51    3435814.86
552    580486.82    3435814.33
552    580487.49    3435814.17
552    580487.52    3435814.17
552    580487.57    3435814.16
552    580489.07    3435814.12
552    580489.08    3435814.12
552    580495.81    3435813.29
552    580496.12    3435813.25
552    580500.00    3435812.62
552    580501.68    3435812.35
552    580510.94    3435810.72
552    580511.38    3435810.65
552    580511.04    3435809.94
552    580506.53    3435799.75
552    580497.17    3435792.26
552    580485.58    3435789.75
552    580483.15    3435786.71
552    580465.82    3435789.61
552    580462.03    3435791.90
552    580454.17    3435795.12
552    580451.91    3435789.61
552    580449.63    3435787.85
552    580447.87    3435783.54
552    580439.51    3435781.78
552    580437.07    3435770.18
552    580428.54    3435765.08
552    580425.61    3435761.29
552    580419.54    3435756.60
552    580413.34    3435757.52
552    580409.93    3435757.02
552    580401.08    3435759.60
552    580399.62    3435744.73
552    580395.00    3435731.20
552    580393.53    3435714.07
552    580390.90    3435704.76
552    580393.24    3435698.82
552    580395.28    3435686.82
552    580398.17    3435679.45
552    580400.08    3435674.60
552    580395.00    3435672.52
552    580385.70    3435660.20
552    580388.35    3435651.11
552    580390.70    3435643.07
552    580384.62    3435638.38
552    580380.21    3435632.67
552    580371.55    3435625.98
552    580368.07    3435617.50
552    580364.65    3435611.82
552    580361.74    3435590.44
552    580358.63    3435589.50
552    580351.22    3435584.25
552    580341.73    3435573.17
552    580332.45    3435561.84
552    580331.39    3435556.04
552    580320.01    3435550.08
552    580319.36    3435549.69
552    580314.36    3435542.72
552    580308.04    3435540.28
552    580298.08    3435542.25
553    580289.57    3435478.07
553    580296.15    3435474.26
553    580301.89    3435469.88
553    580314.95    3435467.26
553    580322.12    3435461.79
553    580327.29    3435459.79
553    580330.21    3435455.72
553    580335.44    3435454.87
553    580337.30    3435453.27
553    580337.95    3435444.10
553    580338.69    3435435.96
553    580330.46    3435429.51
553    580326.00    3435427.52
553    580319.42    3435419.11
553    580316.34    3435415.18
553    580314.27    3435397.13
553    580306.03    3435395.26
553    580305.33    3435392.96
553    580301.98    3435383.12
553    580297.60    3435363.84
553    580283.92    3435354.02
553    580286.60    3435349.11
553    580293.46    3435332.37
553    580289.01    3435316.34
553    580289.17    3435314.13
553    580290.27    3435300.66
553    580281.14    3435291.83
553    580280.93    3435290.64
553    580269.50    3435255.62
553    580267.75    3435250.12
553    580263.53    3435233.39
553    580262.71    3435224.38
553    580261.66    3435213.00
553    580257.61    3435200.86
553    580253.77    3435197.55
553    580252.30    3435192.98
553    580245.53    3435161.07
553    580212.35    3435150.13
553    580193.31    3435113.19
553    580193.30    3435113.20
553    580192.07    3435113.87
553    580191.94    3435113.93
553    580191.91    3435113.94
553    580191.81    3435113.99
553    580190.79    3435114.33
553    580189.19    3435114.64
553    580186.82    3435115.07
553    580186.61    3435115.12
553    580186.46    3435115.16
553    580185.20    3435115.61
553    580183.86    3435116.26
553    580182.45    3435117.12
553    580181.24    3435118.02
553    580180.23    3435118.92
553    580180.16    3435119.00
553    580179.28    3435119.99
553    580178.51    3435121.06
553    580177.86    3435122.19
553    580177.51    3435123.02
553    580177.47    3435123.11
553    580177.41    3435123.30
553    580177.13    3435124.42
553    580176.93    3435125.97
553    580176.88    3435127.94
553    580177.04    3435130.13
553    580177.33    3435131.90
553    580177.51    3435132.67
553    580177.56    3435132.86
553    580177.62    3435133.05
553    580178.14    3435134.55
553    580178.95    3435136.36
553    580180.06    3435138.47
553    580181.31    3435140.50
553    580181.99    3435141.47
553    580182.11    3435141.63
553    580182.14    3435141.68
553    580184.02    3435144.12
553    580184.09    3435144.23
553    580185.20    3435145.96
553    580187.03    3435148.93
553    580187.40    3435149.45
553    580187.47    3435149.56
553    580187.55    3435149.66
553    580188.58    3435150.90
553    580189.98    3435152.36
553    580191.77    3435154.01
553    580192.18    3435154.37
553    580192.32    3435154.49
553    580197.52    3435158.77
553    580198.87    3435160.03
553    580199.25    3435160.43
553    580199.48    3435160.69
553    580200.58    3435162.03
553    580201.99    3435164.02
553    580204.08    3435167.26
553    580208.64    3435174.79
553    580208.82    3435175.09
553    580208.90    3435175.24
553    580211.22    3435179.20
553    580212.26    3435181.22
553    580212.66    3435182.11
553    580212.72    3435182.26
553    580212.77    3435182.37
553    580213.44    3435184.26
553    580214.49    3435187.91
553    580214.53    3435188.07
553    580216.60    3435195.51
553    580216.64    3435195.66
553    580216.69    3435195.86
553    580218.38    3435202.10
553    580219.17    3435204.46
553    580219.55    3435205.42
553    580219.64    3435205.61
553    580219.72    3435205.79
553    580220.62    3435207.56
553    580222.65    3435211.00
553    580224.02    3435213.43
553    580224.47    3435214.32
553    580224.52    3435214.43
553    580225.32    3435216.36
553    580226.61    3435219.98
553    580226.65    3435220.10
553    580226.70    3435220.24
553    580227.87    3435223.70
553    580228.29    3435225.37
553    580228.47    3435226.77
553    580228.48    3435227.05
553    580228.48    3435227.16
553    580228.39    3435228.49
553    580228.06    3435230.15
553    580227.43    3435232.49
553    580227.39    3435232.60
553    580227.36    3435232.72
553    580226.51    3435235.87
553    580226.19    3435237.63
553    580226.10    3435238.88
553    580226.10    3435239.10
553    580226.23    3435240.62
553    580226.56    3435242.36
553    580227.17    3435244.52
553    580228.07    3435247.09
553    580229.03    3435249.40
553    580229.12    3435249.61
553    580229.21    3435249.80
553    580230.70    3435252.76
553    580232.16    3435255.69
553    580232.85    3435257.36
553    580233.25    3435258.69
553    580233.29    3435258.88
553    580233.34    3435259.12
553    580233.52    3435260.62
553    580233.54    3435262.65
553    580233.33    3435265.49
553    580232.86    3435269.13
553    580232.47    3435271.46
553    580232.43    3435271.72
553    580232.39    3435271.89
553    580231.48    3435276.71
553    580231.28    3435278.58
553    580231.29    3435280.10
553    580231.30    3435280.27
553    580231.32    3435280.47
553    580231.58    3435281.84
553    580232.09    3435283.60
553    580233.55    3435287.89
553    580233.92    3435289.46
553    580233.98    3435289.86
553    580234.01    3435290.05
553    580234.03    3435290.20
553    580234.08    3435291.66
553    580233.92    3435293.72
553    580233.44    3435297.27
553    580233.42    3435297.42
553    580233.41    3435297.51
553    580233.15    3435300.08
553    580233.11    3435301.62
553    580233.11    3435301.70
553    580233.12    3435301.89
553    580233.31    3435303.90
553    580233.75    3435306.44
553    580234.70    3435310.61
553    580234.74    3435310.79
553    580234.79    3435311.00
553    580237.27    3435321.21
553    580237.29    3435321.28
553    580238.10    3435324.52
553    580238.12    3435324.62
553    580238.81    3435326.67
553    580239.56    3435328.46
553    580239.93    3435329.19
553    580239.98    3435329.28
553    580240.03    3435329.38
553    580240.98    3435330.94
553    580243.07    3435333.96
553    580243.14    3435334.05
553    580243.19    3435334.12
553    580244.88    3435336.75
553    580245.36    3435337.54
553    580245.40    3435337.61
553    580245.45    3435337.68
553    580246.44    3435339.46
553    580246.99    3435340.73
553    580247.23    3435341.49
553    580247.25    3435341.54
553    580247.34    3435342.14
553    580247.32    3435342.34
553    580247.32    3435342.36
553    580247.30    3435342.41
553    580247.10    3435342.80
553    580246.43    3435343.64
553    580246.40    3435343.70
553    580246.27    3435344.14
553    580246.32    3435344.74
553    580246.56    3435345.44
553    580247.15    3435346.51
553    580247.45    3435347.01
553    580247.50    3435347.08
553    580247.57    3435347.20
553    580248.56    3435349.03
553    580249.64    3435351.34
553    580250.33    3435352.95
553    580250.40    3435353.11
553    580252.34    3435357.59
553    580253.40    3435359.74
553    580254.15    3435361.02
553    580254.25    3435361.18
553    580254.34    3435361.33
553    580255.60    3435363.11
553    580257.41    3435365.59
553    580258.13    3435366.79
553    580258.62    3435367.87
553    580258.81    3435368.51
553    580258.85    3435368.68
553    580258.88    3435368.83
553    580258.98    3435369.94
553    580258.89    3435371.60
553    580258.55    3435374.96
553    580258.59    3435376.27
553    580258.67    3435376.75
553    580258.70    3435376.91
553    580258.73    3435377.02
553    580259.05    3435377.96
553    580259.69    3435379.28
553    580260.68    3435381.20
553    580260.99    3435382.04
553    580261.03    3435382.17
553    580261.26    3435383.27
553    580261.37    3435384.83
553    580261.31    3435389.16
553    580261.31    3435389.21
553    580261.37    3435390.31
553    580261.37    3435390.35
553    580261.38    3435390.42
553    580261.69    3435392.68
553    580261.86    3435393.67
553    580261.89    3435393.85
553    580263.35    3435401.69
553    580263.50    3435402.41
553    580263.53    3435402.58
553    580263.60    3435402.89
553    580265.27    3435410.35
553    580267.00    3435417.79
553    580267.08    3435418.10
553    580267.09    3435418.18
553    580268.02    3435424.09
553    580268.23    3435428.00
553    580268.24    3435428.05
553    580268.55    3435429.82
553    580268.56    3435429.86
553    580268.57    3435429.97
553    580268.68    3435431.70
553    580268.62    3435433.65
553    580268.39    3435436.63
553    580268.30    3435436.70
553    580265.57    3435438.92
553    580264.28    3435440.11
553    580263.96    3435440.45
553    580263.89    3435440.52
553    580262.86    3435441.72
553    580261.87    3435443.09
553    580261.10    3435444.36
553    580261.05    3435444.45
553    580261.00    3435444.55
553    580260.30    3435446.05
553    580259.64    3435447.83
553    580259.18    3435449.54
553    580259.10    3435449.88
553    580259.08    3435450.00
553    580259.06    3435450.11
553    580258.86    3435451.82
553    580258.81    3435453.87
553    580258.90    3435455.39
553    580258.91    3435455.50
553    580259.20    3435457.43
553    580259.66    3435459.44
553    580260.14    3435460.96
553    580260.18    3435461.07
553    580260.88    3435462.73
553    580261.82    3435464.53
553    580262.72    3435465.96
553    580262.77    3435466.04
553    580263.76    3435467.33
553    580264.85    3435468.54
553    580265.46    3435469.14
553    580265.53    3435469.19
553    580265.61    3435469.26
553    580266.84    3435470.25
553    580268.34    3435471.25
553    580269.82    3435472.06
553    580269.92    3435472.11
553    580270.03    3435472.16
553    580271.64    3435472.84
553    580273.54    3435473.46
553    580275.35    3435473.91
553    580275.72    3435473.98
553    580275.84    3435474.00
553    580275.97    3435474.02
553    580277.86    3435474.22
553    580280.01    3435474.26
553    580281.76    3435474.11
553    580282.01    3435474.07
553    580282.14    3435474.05
553    580282.20    3435474.04
553    580283.96    3435473.62
553    580285.51    3435473.20
553    580286.33    3435473.15
553    580289.57    3435478.07
554    580278.36    3435128.24
554    580279.36    3435094.64
554    580262.13    3435093.21
554    580262.89    3435106.91
554    580263.06    3435110.05
554    580263.08    3435110.29
554    580264.10    3435123.20
554    580278.36    3435128.24
555    580279.36    3435094.64
555    580278.87    3435111.08
555    580278.36    3435128.24
555    580276.80    3435139.25
555    580276.81    3435139.25
555    580278.46    3435150.91
555    580280.82    3435153.72
555    580282.23    3435154.51
555    580285.89    3435156.55
555    580286.69    3435155.63
555    580288.75    3435153.24
555    580294.97    3435151.36
555    580296.42    3435146.42
555    580316.29    3435148.44
555    580326.14    3435140.28
555    580324.60    3435139.33
555    580324.44    3435139.23
555    580324.34    3435139.17
555    580323.04    3435138.36
555    580321.16    3435137.28
555    580319.79    3435136.64
555    580319.69    3435136.59
555    580319.53    3435136.53
555    580318.05    3435136.05
555    580316.00    3435135.58
555    580311.30    3435134.85
555    580311.13    3435134.82
555    580304.63    3435133.81
555    580301.16    3435133.37
555    580300.95    3435133.35
555    580300.84    3435133.34
555    580300.31    3435133.29
555    580298.09    3435133.05
555    580296.86    3435132.78
555    580295.87    3435132.41
555    580295.78    3435132.36
555    580295.71    3435132.33
555    580294.01    3435131.29
555    580293.12    3435130.82
555    580292.41    3435130.61
555    580292.34    3435130.60
555    580291.76    3435130.53
555    580290.86    3435130.61
555    580289.55    3435130.95
555    580289.54    3435130.93
555    580285.23    3435130.67
555    580284.72    3435130.49
555    580284.50    3435127.48
555    580283.29    3435112.23
555    580283.02    3435108.83
555    580282.25    3435094.88
555    580279.36    3435094.64
556    580300.58    3435102.38
556    580307.26    3435105.29
556    580312.33    3435107.76
556    580317.50    3435110.83
556    580325.25    3435116.30
556    580334.01    3435123.03
556    580342.26    3435129.26
556    580349.17    3435134.45
556    580358.00    3435140.86
556    580362.74    3435144.54
556    580367.20    3435147.73
556    580372.88    3435152.04
556    580379.75    3435157.16
556    580385.71    3435161.54
556    580390.97    3435165.50
556    580397.07    3435170.08
556    580403.29    3435174.78
556    580410.51    3435180.09
556    580416.05    3435183.83
556    580421.80    3435187.32
556    580428.60    3435190.66
556    580434.22    3435192.67
556    580440.38    3435194.13
556    580447.35    3435195.52
556    580447.37    3435195.57
556    580447.84    3435195.40
556    580454.37    3435196.62
556    580454.74    3435196.96
556    580454.92    3435196.76
556    580465.21    3435198.20
556    580485.38    3435200.75
556    580493.76    3435201.74
556    580493.82    3435201.25
556    580500.00    3435202.05
556    580558.72    3435209.62
556    580559.10    3435210.07
556    580559.38    3435210.09
556    580559.47    3435208.94
556    580563.27    3435209.40
556    580562.41    3435219.32
556    580561.58    3435228.80
556    580557.41    3435228.40
556    580557.26    3435230.03
556    580557.20    3435230.02
556    580554.10    3435229.61
556    580553.99    3435229.59
556    580548.48    3435229.00
556    580548.36    3435228.99
556    580548.25    3435228.97
556    580543.99    3435228.27
556    580542.58    3435228.03
556    580542.46    3435228.01
556    580542.26    3435227.98
556    580537.42    3435227.33
556    580532.57    3435226.76
556    580532.37    3435226.73
556    580532.17    3435226.71
556    580522.54    3435225.47
556    580522.31    3435225.44
556    580511.02    3435224.23
556    580510.78    3435224.20
556    580510.46    3435224.16
556    580500.92    3435222.91
556    580500.00    3435222.79
556    580495.20    3435222.14
556    580494.88    3435222.09
556    580494.24    3435221.99
556    580494.28    3435221.76
556    580492.83    3435221.31
556    580490.93    3435220.93
556    580487.51    3435220.56
556    580479.92    3435219.37
556    580479.66    3435219.33
556    580479.23    3435219.26
556    580475.81    3435218.74
556    580458.69    3435216.34
556    580458.26    3435216.29
556    580457.94    3435216.24
556    580448.33    3435214.91
556    580442.58    3435214.00
556    580442.26    3435213.94
556    580442.00    3435213.90
556    580439.32    3435213.38
556    580429.20    3435211.19
556    580428.94    3435211.13
556    580428.87    3435211.12
556    580425.85    3435210.45
556    580425.79    3435210.44
556    580416.42    3435206.89
556    580415.71    3435206.50
556    580416.14    3435205.47
556    580412.39    3435203.69
556    580411.90    3435204.72
556    580410.80    3435204.22
556    580405.94    3435201.41
556    580405.48    3435200.48
556    580405.39    3435200.40
556    580405.32    3435200.35
556    580402.04    3435197.56
556    580401.97    3435197.50
556    580401.14    3435196.85
556    580395.94    3435193.22
556    580395.81    3435193.13
556    580395.53    3435192.92
556    580392.99    3435190.98
556    580387.48    3435186.49
556    580382.25    3435182.23
556    580381.97    3435182.01
556    580381.69    3435181.79
556    580374.91    3435176.64
556    580374.76    3435176.53
556    580374.58    3435176.39
556    580365.76    3435169.72
556    580365.57    3435169.58
556    580365.44    3435169.47
556    580358.84    3435164.40
556    580358.71    3435164.29
556    580351.18    3435158.48
556    580351.02    3435158.36
556    580350.89    3435158.26
556    580344.75    3435153.64
556    580344.62    3435153.55
556    580344.50    3435153.45
556    580338.78    3435148.96
556    580338.66    3435148.86
556    580338.54    3435148.77
556    580335.48    3435146.41
556    580332.84    3435144.49
556    580332.72    3435144.40
556    580332.56    3435144.29
556    580331.42    3435143.54
556    580330.90    3435143.21
556    580336.36    3435158.54
556    580340.59    3435160.38
556    580349.87    3435171.54
556    580356.78    3435174.54
556    580362.66    3435182.82
556    580365.96    3435185.56
556    580369.35    3435191.55
556    580370.13    3435192.84
556    580365.43    3435201.05
556    580360.83    3435217.53
556    580361.56    3435219.82
556    580362.66    3435223.29
556    580364.87    3435225.12
556    580366.71    3435229.36
556    580370.94    3435231.19
556    580377.93    3435240.39
556    580386.70    3435230.54
556    580388.73    3435228.18
556    580396.70    3435224.62
556    580405.32    3435217.20
556    580409.18    3435212.73
556    580421.04    3435216.30
556    580423.53    3435217.05
556    580427.43    3435219.22
556    580453.51    3435221.62
556    580454.71    3435221.73
556    580458.31    3435225.91
556    580485.33    3435223.74
556    580487.08    3435224.24
556    580501.36    3435228.25
556    580543.24    3435232.39
556    580560.23    3435241.14
556    580560.57    3435240.42
556    580563.05    3435235.31
556    580568.82    3435234.52
556    580575.52    3435203.25
556    580565.09    3435202.84
556    580563.83    3435202.89
556    580557.73    3435203.13
556    580533.80    3435198.97
556    580500.47    3435196.06
556    580494.31    3435192.81
556    580482.27    3435189.94
556    580479.84    3435174.68
556    580456.10    3435176.56
556    580436.25    3435181.48
556    580434.59    3435179.69
556    580429.42    3435178.79
556    580415.26    3435174.75
556    580411.43    3435172.50
556    580407.16    3435170.70
556    580405.36    3435168.45
556    580401.15    3435165.08
556    580392.09    3435163.50
556    580388.05    3435157.43
556    580386.25    3435155.10
556    580373.89    3435145.80
556    580371.31    3435143.83
556    580368.30    3435136.48
556    580352.11    3435124.48
556    580346.00    3435121.98
556    580342.65    3435113.80
556    580336.54    3435111.97
556    580335.03    3435111.68
556    580327.71    3435106.03
556    580300.58    3435102.38
557    580671.04    3435178.95
557    580666.66    3435184.40
557    580657.99    3435182.46
557    580657.16    3435189.81
557    580638.91    3435191.13
557    580630.71    3435195.58
557    580611.05    3435194.41
557    580594.55    3435198.83
557    580586.34    3435199.93
557    580585.16    3435203.64
557    580583.85    3435203.58
557    580575.52    3435203.25
557    580573.93    3435210.69
557    580571.85    3435220.38
557    580569.88    3435229.58
557    580568.82    3435234.52
557    580577.38    3435233.33
557    580581.13    3435234.85
557    580589.81    3435238.36
557    580614.21    3435240.32
557    580620.23    3435236.93
557    580609.82    3435235.67
557    580596.44    3435234.19
557    580584.20    3435232.30
557    580581.92    3435232.29
557    580582.06    3435230.73
557    580581.49    3435230.68
557    580582.29    3435221.55
557    580583.13    3435211.80
557    580583.46    3435211.84
557    580583.42    3435212.27
557    580583.75    3435212.33
557    580583.74    3435212.48
557    580588.25    3435212.89
557    580603.22    3435215.14
557    580610.86    3435217.22
557    580618.73    3435218.46
557    580632.10    3435219.50
557    580641.47    3435219.24
557    580647.95    3435219.70
557    580652.07    3435220.54
557    580659.67    3435220.99
557    580670.23    3435220.29
557    580688.56    3435216.90
557    580710.32    3435212.79
557    580734.18    3435208.20
557    580734.22    3435208.17
557    580735.17    3435207.60
557    580735.63    3435207.43
557    580735.64    3435207.43
557    580735.69    3435207.41
557    580736.33    3435207.33
557    580737.22    3435207.43
557    580738.02    3435207.68
557    580738.31    3435207.83
557    580738.36    3435207.86
557    580738.88    3435208.27
557    580739.43    3435208.90
557    580739.87    3435209.61
557    580740.06    3435210.09
557    580740.08    3435210.14
557    580740.09    3435210.19
557    580740.17    3435210.98
557    580740.18    3435212.19
557    580740.18    3435212.21
557    580740.19    3435212.26
557    580740.33    3435213.00
557    580740.47    3435213.32
557    580740.48    3435213.36
557    580740.51    3435213.40
557    580740.86    3435213.82
557    580741.32    3435214.15
557    580741.36    3435214.17
557    580742.02    3435214.44
557    580742.81    3435214.58
557    580742.86    3435214.59
557    580742.87    3435214.59
557    580742.93    3435214.59
557    580743.84    3435214.50
557    580745.94    3435214.00
557    580745.99    3435213.98
557    580747.09    3435213.79
557    580747.67    3435213.84
557    580747.84    3435213.90
557    580747.87    3435213.91
557    580747.91    3435213.93
557    580748.28    3435214.23
557    580748.87    3435214.89
557    580748.89    3435214.91
557    580748.93    3435214.95
557    580749.71    3435215.73
557    580749.77    3435215.80
557    580749.83    3435215.91
557    580751.35    3435216.20
557    580753.02    3435216.17
557    580755.01    3435216.20
557    580755.62    3435215.82
557    580756.35    3435215.53
557    580756.45    3435215.51
557    580756.46    3435215.51
557    580756.52    3435215.49
557    580757.36    3435215.41
557    580758.33    3435215.50
557    580759.29    3435215.77
557    580759.47    3435215.84
557    580759.54    3435215.88
557    580760.87    3435216.56
557    580761.93    3435217.08
557    580762.58    3435217.26
557    580763.07    3435217.24
557    580763.13    3435217.22
557    580763.20    3435217.20
557    580763.24    3435217.18
557    580763.64    3435216.93
557    580764.08    3435216.48
557    580764.33    3435216.13
557    580764.34    3435216.12
557    580764.38    3435216.05
557    580764.80    3435215.23
557    580765.38    3435213.60
557    580765.71    3435212.69
557    580765.74    3435212.62
557    580765.77    3435212.55
557    580766.40    3435211.31
557    580767.53    3435209.49
557    580767.81    3435209.08
557    580767.85    3435209.02
557    580768.97    3435207.49
557    580769.76    3435206.61
557    580770.29    3435206.15
557    580770.36    3435206.10
557    580770.40    3435206.07
557    580771.14    3435205.64
557    580771.89    3435205.36
557    580772.14    3435205.30
557    580772.15    3435205.30
557    580772.26    3435205.28
557    580773.22    3435205.25
557    580774.62    3435205.43
557    580777.13    3435205.87
557    580777.57    3435205.90
557    580777.62    3435205.91
557    580778.74    3435205.85
557    580779.51    3435205.67
557    580779.61    3435205.63
557    580779.62    3435205.63
557    580779.70    3435205.59
557    580780.34    3435205.23
557    580781.05    3435204.65
557    580781.87    3435203.78
557    580782.57    3435202.82
557    580782.61    3435202.74
557    580782.64    3435202.70
557    580783.32    3435201.48
557    580783.34    3435201.44
557    580730.73    3435201.13
557    580717.86    3435200.62
557    580705.72    3435201.10
557    580696.99    3435200.75
557    580693.58    3435195.88
557    580692.81    3435188.61
557    580671.04    3435178.95
558    580629.61    3435243.32
558    580651.08    3435245.53
558    580671.32    3435246.46
558    580672.47    3435246.57
558    580683.83    3435244.95
558    580683.85    3435244.94
558    580712.75    3435240.78
558    580737.41    3435237.12
558    580748.67    3435235.46
558    580789.42    3435233.87
558    580791.64    3435233.62
558    580793.83    3435233.37
558    580801.20    3435232.91
558    580803.80    3435200.99
558    580794.78    3435201.19
558    580783.34    3435201.44
558    580789.10    3435202.57
558    580791.95    3435207.13
558    580791.92    3435207.36
558    580794.16    3435207.63
558    580792.99    3435219.73
558    580792.91    3435220.57
558    580792.53    3435224.49
558    580790.18    3435224.95
558    580790.05    3435226.20
558    580784.91    3435226.09
558    580770.18    3435225.17
558    580763.41    3435225.03
558    580761.04    3435224.82
558    580746.06    3435226.46
558    580714.01    3435232.55
558    580681.71    3435238.72
558    580674.53    3435239.54
558    580669.12    3435240.27
558    580663.29    3435240.58
558    580651.01    3435240.30
558    580644.98    3435239.84
558    580636.56    3435238.91
558    580630.03    3435238.12
558    580629.61    3435243.32
559    580801.20    3435232.91
559    580811.84    3435232.53
559    580842.45    3435231.44
559    580864.56    3435231.22
559    580899.84    3435227.51
559    580910.54    3435226.38
559    580917.24    3435225.68
559    580924.88    3435224.87
559    580946.05    3435228.58
559    580970.09    3435239.91
559    581026.67    3435266.56
559    581047.01    3435276.15
559    581047.12    3435276.20
559    581056.02    3435274.40
559    581057.02    3435265.86
559    581058.02    3435257.34
559    581059.26    3435246.85
559    581050.78    3435246.09
559    581050.74    3435246.43
559    581049.49    3435246.17
559    581048.57    3435256.32
559    581047.91    3435263.53
559    581047.58    3435268.19
559    581046.92    3435268.17
559    581045.27    3435267.92
559    581042.43    3435267.22
559    581039.43    3435266.33
559    581038.08    3435265.96
559    581038.11    3435263.92
559    581020.55    3435257.13
559    581013.82    3435254.28
559    581011.16    3435254.82
559    581005.30    3435251.48
559    581005.64    3435250.76
559    581003.90    3435249.75
559    581003.70    3435248.26
559    580996.68    3435245.31
559    580990.10    3435241.45
559    580989.83    3435242.23
559    580982.68    3435237.62
559    580983.56    3435236.15
559    580979.39    3435233.90
559    580973.56    3435231.08
559    580963.24    3435227.57
559    580954.08    3435225.18
559    580952.79    3435226.40
559    580952.63    3435226.56
559    580944.93    3435225.06
559    580945.25    3435222.02
559    580943.55    3435221.86
559    580928.55    3435220.64
559    580927.13    3435220.64
559    580926.96    3435222.20
559    580920.55    3435221.59
559    580921.09    3435219.66
559    580895.56    3435219.90
559    580894.81    3435221.83
559    580890.77    3435221.90
559    580878.95    3435223.86
559    580872.46    3435224.62
559    580863.43    3435225.56
559    580863.28    3435226.41
559    580834.80    3435229.36
559    580832.61    3435227.65
559    580831.79    3435228.59
559    580832.98    3435229.46
559    580828.27    3435229.82
559    580825.98    3435227.76
559    580824.99    3435228.60
559    580826.04    3435229.90
559    580820.87    3435229.83
559    580819.05    3435227.81
559    580818.03    3435228.70
559    580818.94    3435229.72
559    580813.69    3435229.35
559    580813.89    3435227.35
559    580813.39    3435227.28
559    580812.36    3435227.14
559    580812.81    3435222.51
559    580813.19    3435218.60
559    580814.01    3435210.09
559    580815.58    3435210.29
559    580815.66    3435209.48
559    580816.21    3435209.29
559    580822.28    3435209.90
559    580826.91    3435209.93
559    580833.51    3435209.56
559    580833.75    3435211.39
559    580860.83    3435208.66
559    580861.91    3435206.85
559    580882.99    3435204.63
559    580889.62    3435204.03
559    580898.26    3435203.01
559    580908.39    3435201.80
559    580909.96    3435203.58
559    580919.93    3435203.27
559    580928.57    3435203.64
559    580928.31    3435205.31
559    580929.80    3435205.28
559    580944.80    3435206.50
559    580946.48    3435206.64
559    580946.57    3435204.92
559    580955.89    3435206.96
559    580955.99    3435208.04
559    580957.20    3435208.08
559    580957.42    3435207.20
559    580963.94    3435208.80
559    580963.84    3435209.94
559    580964.96    3435210.09
559    580965.16    3435209.21
559    580971.89    3435211.33
559    580971.72    3435212.32
559    580972.98    3435212.54
559    580973.17    3435211.76
559    580982.28    3435215.26
559    580982.52    3435216.18
559    580987.84    3435218.98
559    580994.90    3435222.10
559    581000.00    3435225.03
559    581008.43    3435229.86
559    581005.18    3435220.16
559    580998.28    3435220.10
559    580984.69    3435210.30
559    580982.92    3435208.02
559    580973.76    3435207.06
559    580957.62    3435203.62
559    580955.72    3435203.21
559    580953.29    3435200.48
559    580930.96    3435199.13
559    580909.07    3435197.71
559    580894.87    3435196.82
559    580890.92    3435198.97
559    580855.38    3435203.44
559    580838.84    3435202.45
559    580832.24    3435207.06
559    580827.76    3435208.97
559    580822.60    3435203.20
559    580814.77    3435202.28
559    580803.80    3435200.99
559    580803.17    3435208.75
559    580802.32    3435219.21
559    580801.79    3435225.64
559    580801.20    3435232.91
560    581345.53    3435256.75
560    581345.98    3435241.59
560    581346.48    3435224.78
560    581346.71    3435216.74
560    581340.06    3435217.05
560    581338.38    3435217.37
560    581332.34    3435218.52
560    581299.11    3435216.31
560    581298.50    3435218.65
560    581299.53    3435218.79
560    581301.58    3435219.06
560    581307.83    3435219.91
560    581308.08    3435219.94
560    581308.46    3435219.98
560    581314.17    3435220.54
560    581327.14    3435221.50
560    581327.31    3435221.51
560    581335.17    3435222.12
560    581335.33    3435222.14
560    581335.12    3435223.99
560    581337.23    3435224.14
560    581332.47    3435252.35
560    581331.52    3435255.41
560    581345.53    3435256.75

[COORDINATES]
;Name           X               Y
1    581043.41    3435679.38
2    580765.06    3434934.51
3    580681.94    3435853.32
4    581021.16    3435715.54
5    580676.64    3435862.62
6    580339.10    3435317.76
7    580430.42    3435682.67
8    581005.02    3434850.78
9    580654.85    3435719.25
10    580283.36    3434854.17
11    580762.86    3435656.90
12    580387.09    3434899.67
13    580925.82    3435907.32
14    580306.45    3435343.80
15    580812.01    3435089.53
16    580822.81    3435889.61
17    580785.72    3434975.54
18    580624.17    3435590.81
19    581050.33    3435397.78
20    580996.26    3435866.95
21    580571.85    3435135.95
22    581393.08    3435063.30
23    580315.39    3435056.46
24    580762.77    3435693.85
25    580753.35    3435262.47
26    580448.43    3434877.04
27    581332.71    3435335.37
28    580533.86    3434935.43
29    581443.17    3435357.07
30    581079.58    3434783.57
31    580690.09    3435365.14
32    580269.09    3434895.80
33    580629.59    3435842.77
34    580574.03    3435474.68
35    580806.45    3435120.51
36    580753.54    3435759.14
37    580318.10    3435371.29
38    581214.95    3434959.94
39    580827.48    3435538.65
40    580526.10    3435465.47
41    580846.20    3435797.33
42    580818.96    3435289.41
43    581043.58    3435719.79
44    580728.60    3435858.44
45    580957.63    3435109.77
46    580932.31    3435924.41
47    581097.81    3435199.60
48    580792.93    3435319.37
49    580711.54    3435890.33
50    580249.40    3434879.07
51    580332.13    3435474.87
52    580588.02    3435421.25
53    580618.46    3435531.13
54    580853.04    3434956.00
55    580736.02    3435911.26
56    581333.70    3435105.44
57    580526.84    3435339.62
58    580221.91    3434561.72
59    580368.91    3434558.79
60    580747.89    3435183.92
61    580991.31    3435324.34
62    580593.30    3435341.55
63    580878.29    3434993.92
64    580323.61    3435272.77
65    580786.70    3435255.46
66    581317.96    3435071.40
67    580951.01    3434843.12
68    580432.19    3435520.36
69    581419.88    3434922.28
70    581074.07    3435605.31
71    580662.39    3435632.39
72    581409.57    3435358.24
73    580951.49    3435418.29
74    581069.20    3435329.38
75    580828.46    3435323.98
76    581381.13    3435143.46
77    580958.10    3435888.20
78    580545.81    3435596.43
79    580286.06    3435270.07
80    580663.90    3435286.90
81    581051.49    3435328.90
82    580308.38    3434941.23
83    580330.36    3435398.23
84    580779.61    3435289.29
85    580772.86    3435858.14
86    580832.14    3435267.36
87    580607.18    3435462.36
88    580790.60    3434900.13
89    580550.85    3435069.70
90    581037.70    3435330.89
91    581300.63    3435018.36
92    580545.48    3435540.54
93    580765.29    3435512.71
94    580505.10    3434938.55
95    580713.09    3435717.37
96    580453.51    3435736.80
97    580572.63    3435670.69
98    580528.82    3435561.69
99    580595.79    3435252.15
100    581379.87    3434919.87
101    580361.82    3435321.12
102    581032.56    3435111.27
103    580742.47    3435577.41
104    580378.00    3435424.06
105    581090.13    3435620.56
106    580569.36    3435600.28
107    580595.69    3435402.02
108    581185.23    3434961.60
109    580783.67    3435688.46
110    580996.89    3435112.00
111    581005.74    3435831.27
112    580979.37    3434895.18
113    580712.89    3435846.44
114    581420.38    3435135.37
115    580562.28    3435304.68
116    580780.84    3435314.85
117    580266.19    3434610.33
118    580920.26    3435412.96
119    580752.33    3435886.97
120    580796.84    3435273.07
121    580342.40    3434647.86
122    580531.52    3435382.21
123    581384.28    3435203.60
124    580268.97    3435205.71
125    581021.03    3435343.96
126    580230.88    3434786.53
127    580837.68    3435924.84
128    580976.08    3434950.12
129    581299.22    3434863.80
130    581210.42    3435388.71
131    580525.80    3435701.75
132    580755.99    3435778.93
133    581036.49    3435799.44
134    580533.81    3435521.28
135    581298.53    3435275.95
136    580890.23    3435933.03
137    580693.67    3435805.87
138    580370.88    3434771.54
139    580593.09    3435714.08
140    581183.63    3435386.03
141    580367.90    3435384.99
142    580575.79    3435357.86
143    580536.67    3435246.73
144    580761.79    3435412.12
145    580756.87    3435464.82
146    580785.37    3435882.85
147    580763.30    3435737.65
148    581473.20    3435442.39
149    580562.59    3435815.31
150    580322.26    3435243.20
151    580580.13    3435071.35
152    580965.80    3435896.33
153    580647.86    3435803.30
154    581361.11    3434670.33
155    580261.14    3434468.05
156    580464.79    3435579.01
157    580968.68    3435905.17
158    580834.92    3435838.69
159    580580.27    3435643.82
160    580832.14    3435856.53
161    580319.56    3435191.41
162    580276.43    3435237.65
163    580556.02    3435004.89
164    581275.27    3434835.82
165    581285.88    3435131.50
166    580357.13    3434799.43
167    581154.29    3434952.13
168    581150.97    3435382.61
169    581141.86    3435142.15
170    581015.93    3435835.17
171    580563.81    3435279.53
172    581018.35    3435413.94
173    580779.17    3435087.92
174    580327.18    3435304.49
175    580604.79    3435040.03
176    580820.52    3434931.84
177    581332.14    3435271.54
178    581118.08    3435379.08
179    580845.92    3435457.29
180    580513.09    3435660.24
181    580401.90    3435254.67
182    580472.03    3435761.65
183    581011.93    3435283.13
185    580357.87    3434436.92
186    580597.02    3434905.73
187    580858.18    3435578.24
188    580575.87    3435104.67
189    580572.56    3434953.33
190    581279.93    3435438.61
191    580313.52    3434984.55
192    580528.00    3435401.31
193    580542.96    3435638.55
194    581397.16    3435440.18
195    580853.88    3435375.96
196    581017.48    3435795.28
197    580320.82    3434856.03
198    580828.94    3435635.60
199    580297.81    3435299.41
200    581347.53    3435296.64
201    581207.99    3434704.32
202    580340.67    3435340.66
203    580538.68    3435617.32
204    580264.80    3434730.82
205    580438.80    3435711.56
206    581184.35    3435545.58
207    581311.72    3435133.44
208    580837.24    3435755.85
209    581157.69    3434736.71
210    580984.92    3435414.03
211    580779.42    3435165.19
212    580536.07    3435422.66
213    580344.21    3434587.02
214    580757.23    3435305.52
215    580658.75    3435855.00
216    580994.52    3434816.63
217    580596.11    3435661.12
218    580789.73    3435144.11
219    580897.03    3435288.85
220    580999.82    3435874.34
221    580778.50    3435372.97
222    581342.20    3434968.91
223    580338.58    3434684.22
224    581061.39    3434808.69
225    581478.48    3434827.58
226    580302.04    3435319.14
227    580927.28    3434874.71
228    580771.83    3435886.39
229    581303.49    3434691.56
230    581112.48    3435599.47
231    580362.61    3435055.99
232    581052.93    3435311.66
233    580829.96    3435426.60
234    581100.04    3435582.76
235    580555.50    3435561.62
236    580783.53    3435659.40
237    580767.70    3435831.18
238    580350.03    3434473.81
239    580776.25    3435241.29
240    581022.77    3435211.40
241    580696.90    3435286.44
242    580577.83    3435497.64
243    580367.33    3434409.49
244    580256.57    3434915.22
245    580812.51    3435054.47
246    580631.51    3434900.75
247    581213.82    3435530.85
248    580591.55    3434950.40
249    580499.64    3435463.40
250    581100.37    3434941.86
251    580327.82    3434917.25
252    580281.49    3434420.29
253    580250.33    3434757.92
254    580583.04    3435278.17
255    580362.41    3435295.09
256    581255.40    3435117.33
257    580622.96    3434983.05
258    580206.06    3434583.53
259    580741.18    3435552.50
260    580850.76    3434868.92
261    580856.33    3435931.64
262    581369.07    3435169.58
263    581273.67    3434696.16
264    580807.26    3435024.07
265    580537.56    3435664.21
266    580818.31    3435402.76
267    580793.14    3435295.92
268    581135.74    3434762.94
269    580578.57    3435542.40
270    581457.76    3435126.94
271    581207.26    3435520.84
272    580882.94    3435093.97
273    580658.31    3435367.40
274    580571.47    3435707.64
275    580919.56    3435099.82
276    580410.40    3435404.24
277    580782.14    3435462.42
278    580398.21    3435298.39
279    581386.19    3434656.99
280    580344.40    3435514.65
281    581074.51    3435294.99
282    580858.60    3435522.77
283    580626.99    3435359.44
284    580606.78    3435833.56
285    580279.36    3434701.79
286    580621.56    3435792.55
287    581364.34    3435435.10
288    580565.44    3435034.81
289    580587.59    3435382.21
290    580731.83    3434942.01
291    581083.50    3435379.31
292    580502.12    3435567.04
293    581235.31    3434773.55
294    580616.77    3435079.40
295    580997.44    3434997.84
296    581120.94    3435348.83
297    581478.73    3435362.43
298    581379.66    3435001.82
299    580839.87    3435775.56
300    581044.76    3435284.77
301    580837.98    3435653.47
302    580433.50    3435264.40
303    581306.32    3435408.50
304    581061.44    3435644.25
305    580571.85    3435657.50
306    580805.76    3435316.10
307    580576.98    3435579.39
308    580634.06    3435647.58
309    581307.17    3434949.82
310    581024.45    3435838.01
311    580394.18    3435333.44
312    580715.85    3435089.16
313    580544.17    3435561.66
314    580882.37    3435884.09
315    580586.44    3435628.98
316    580399.57    3435475.38
317    580257.96    3435023.02
318    581334.96    3434686.16
319    581108.24    3435593.64
320    580748.63    3435085.56
321    580740.06    3435704.35
322    581062.89    3435113.85
323    580796.50    3435351.04
324    580599.55    3435300.06
325    580762.58    3435885.56
326    580682.72    3435094.04
327    580360.27    3435362.15
328    580587.86    3435786.03
329    581239.39    3435499.54
330    580561.84    3434978.41
331    580931.89    3435915.14
332    580547.86    3435470.37
333    580840.56    3435736.19
334    581027.71    3435797.26
335    580365.59    3434737.07
336    580651.10    3435083.48
337    581274.03    3434959.96
338    581194.74    3435110.70
339    580756.32    3435531.49
340    580577.21    3435452.69
341    580749.98    3434867.46
342    581153.00    3435353.11
343    580695.59    3434923.74
344    581212.96    3435524.85
345    580355.12    3434525.70
346    580670.84    3435479.62
347    581182.21    3435538.74
348    580214.96    3434568.78
349    580811.47    3435922.54
350    581487.51    3435141.57
351    580392.93    3435388.35
352    580853.74    3435615.62
353    580663.09    3434914.74
354    581055.55    3435353.09
355    580694.85    3435870.42
356    580979.37    3434862.82
357    580545.80    3435274.49
358    580753.80    3435920.83
359    581337.44    3435366.38
360    580852.47    3435675.27
361    581019.21    3435023.57
362    581299.70    3435327.36
363    580610.11    3435714.34
364    581233.18    3435496.44
365    580813.50    3435379.56
366    580229.40    3434815.45
367    581245.51    3434968.26
368    580482.54    3435075.95
369    581057.43    3435079.92
370    580402.28    3435073.83
371    580612.57    3434954.87
372    580256.38    3434945.94
373    581240.73    3435504.47
374    580573.28    3435307.14
375    581128.51    3434956.64
376    580659.99    3435832.97
377    580726.37    3435893.20
378    581026.31    3435179.85
379    581307.32    3434985.44
380    580811.89    3434862.98
381    580428.30    3435649.55
382    580324.10    3435216.05
383    580843.72    3435819.18
384    580850.67    3435243.52
385    580851.68    3435481.22
386    580443.27    3435082.46
387    581456.84    3434900.90
388    580484.95    3435647.60
389    580785.05    3435920.54
390    580439.80    3435450.82
391    581181.51    3434719.67
392    580739.03    3435649.26
393    581339.74    3435140.32
394    580862.25    3435500.51
395    580466.57    3435267.87
396    581045.37    3434831.76
397    581334.02    3435420.83
398    580786.77    3434946.64
399    580856.13    3435905.98
400    581327.58    3435169.94
401    581296.56    3435441.53
402    581033.10    3435715.23
403    580835.77    3435697.74
404    580497.85    3435786.32
405    581292.11    3435200.43
406    581241.47    3434697.94
407    580551.54    3435580.30
408    580975.94    3434922.99
409    581029.86    3435755.39
410    581122.22    3435146.35
411    581092.97    3435142.55
412    581297.37    3435394.71
413    580416.07    3434892.89
414    580362.19    3434892.85
415    581108.47    3434777.12
416    581040.06    3435051.19
417    581044.52    3435162.82
418    580865.77    3435554.44
419    581031.25    3435674.78
420    580343.96    3435423.89
421    580209.98    3434539.44
422    580638.66    3435465.19
423    580843.83    3435158.48
424    581375.77    3435356.56
425    580781.49    3435890.98
426    580741.16    3435884.63
427    580370.25    3435544.90
428    580892.47    3434886.34
429    580766.68    3435393.12
430    581414.54    3434626.39
431    580252.14    3435150.77
432    580238.03    3434846.23
433    581262.41    3435470.23
434    581222.33    3435125.58
435    580259.60    3434639.04
436    580960.16    3435296.24
437    581307.81    3434922.38
438    580247.99    3434667.50
439    580391.37    3435575.77
440    581090.88    3435340.80
441    580541.84    3435499.72
442    580427.60    3435344.71
443    581058.48    3434985.60
444    580985.03    3435863.06
445    580761.68    3435613.45
446    581271.19    3435396.22
447    580397.23    3435442.04
448    580794.79    3434996.62
449    580973.41    3434826.86
450    581268.04    3435470.45
451    580527.36    3435293.93
452    580594.32    3435561.08
453    580576.52    3435438.17
454    580852.48    3435597.70
455    581305.58    3434896.57
456    581274.61    3435431.22
457    580617.64    3435650.79
458    580413.07    3435616.00
459    580727.56    3435298.92
460    580265.62    3434446.97
461    581070.89    3435648.53
462    580491.27    3435353.67
463    580551.74    3435306.63
464    580700.19    3435477.01
465    580563.74    3435264.41
466    580753.77    3435809.98
467    580763.43    3435795.46
468    581313.51    3435300.24
469    580541.16    3435758.93
470    580573.99    3435615.71
471    581349.17    3434929.80
472    581084.65    3435614.57
473    580226.93    3434503.15
474    581397.59    3435033.60
475    581377.86    3435101.77
476    580518.52    3435067.02
477    580628.77    3435717.86
478    580702.35    3435631.43
479    580775.72    3435715.29
480    580564.62    3435174.57
481    580229.52    3435124.58
482    580862.83    3435306.31
483    580849.79    3435187.12
484    581054.93    3435140.17
485    580306.08    3435165.21
486    580625.24    3435011.14
487    580555.29    3435666.91
488    580729.01    3435467.12
489    580774.11    3435492.24
490    580471.38    3435457.16
491    581040.60    3435756.15
492    580365.31    3435260.38
493    580479.23    3434889.35
494    581249.36    3434807.07
495    580841.25    3435715.98
496    580683.91    3435719.65
497    580237.73    3435059.91
498    580895.65    3435925.07
499    580722.19    3435370.21
500    581304.07    3435045.50
501    580774.08    3435434.13
502    580339.31    3434618.07
503    580928.13    3435287.41
504    580888.91    3435394.24
505    580546.91    3435356.37
506    580570.06    3435521.32
507    581200.45    3435352.22
508    581190.41    3435548.26
509    580755.61    3435359.16
510    581257.13    3435464.76
511    580631.58    3435286.37
512    581054.13    3435681.23
513    580260.87    3435174.90
514    580550.14    3435448.71
515    580848.66    3435093.62
516    581278.78    3435364.88
517    580497.92    3435274.58
518    580983.72    3434973.89
519    581049.17    3435636.85
520    581019.56    3435757.67
521    580459.18    3435353.54
522    580760.73    3435328.57
523    580564.33    3434919.89
524    580251.58    3434985.16
525    580196.24    3435007.74
526    580165.22    3434748.44
527    580446.85    3434526.67
528    580747.24    3434810.75
529    580913.70    3434800.75
530    581064.60    3434604.33
531    581423.35    3435290.99
532    581440.22    3435538.07
533    581442.48    3435227.92
534    581219.48    3435196.80
535    581351.04    3435235.26
536    581120.43    3435213.12
537    581104.38    3435067.68
538    581086.02    3434978.26
539    581040.40    3434926.18
540    581021.55    3434825.66
541    581016.68    3434816.97
542    580934.35    3435537.98
543    580893.25    3435642.84
544    581147.69    3435571.34
545    581142.24    3435563.51
546    581261.19    3435334.82
547    581233.73    3435381.87
548    580812.77    3435940.19
549    580735.96    3435925.41
550    580540.75    3435821.91
551    580528.97    3435819.77
552    580338.33    3435665.67
553    580263.06    3435316.79
554    580271.11    3435109.35
555    580293.76    3435136.77
556    580427.32    3435191.96
557    580658.98    3435206.94
558    580736.11    3435231.53
559    580927.63    3435226.79
560    581335.79    3435233.77
DY513    580379.79    3435508.05
DY515    580391.65    3435535.64
DY511    580356.12    3435452.59
DY509    580344.25    3435425.06
DY529    580474.21    3435728.56
DY526    580462.25    3435701.10
CY89    581105.47    3435587.56
CY88    581110.17    3435594.27
CY128    580837.59    3435924.30
CY83    581204.54    3435523.33
CY98    581037.25    3435677.02
CY126    580826.02    3435921.42
CY164    580651.10    3435668.14
CY139    580606.35    3435830.00
CY62T1    580763.38    3435686.39
CY147    580763.39    3435667.96
CY97    581045.33    3435679.11
CY120    580890.09    3435928.38
CY125    580847.99    3435927.50
CY133    580678.22    3435859.45
CY135    580660.20    3435852.02
CY137    580632.40    3435840.53
DY384    580268.81    3434915.77
CY156    580554.02    3435668.58
CY163    580630.81    3435668.22
CY76T1    580547.17    3435686.74
CY74T1    580571.16    3435686.71
CY72T1    580595.20    3435686.95
CY151    580513.30    3435668.65
CY71T1    580609.64    3435686.80
CY70T1    580624.76    3435686.62
CY69T1    580654.37    3435686.23
CY64T1    580743.33    3435686.13
CY132    580696.19    3435866.84
CY131    580714.26    3435881.03
CY72    581283.42    3435436.21
CY110    581009.87    3435833.07
CY91    581087.17    3435614.43
CY87    581111.17    3435595.53
DY517    580403.39    3435563.22
DY533    580498.31    3435783.55
DY522    580438.59    3435645.96
DY524    580450.41    3435673.51
DY437    580483.28    3435658.66
DY433    580398.99    3435474.23
CY153    580542.88    3435668.60
CY82    581209.98    3435529.59
CY80    581233.62    3435496.35
CY79    581239.78    3435501.82
CY77    581257.82    3435465.51
CY68T1    580683.97    3435686.31
CY90    581088.07    3435615.25
CY93    581064.51    3435644.86
CY96    581046.44    3435679.37
CY99    581035.61    3435717.83
CY102    581032.79    3435756.92
CY106    581030.64    3435797.28
CY108    581018.36    3435836.85
CY113    580989.06    3435865.71
CY145-9    580698.25    3435862.16
CY145-17    580750.03    3435894.97
CY130    580748.28    3435899.60
CY69    581296.86    3435407.89
CY74    581284.80    3435437.00
CY75    581265.57    3435470.47
CY78    581240.38    3435502.40
CY81    581210.56    3435530.36
CY119    580930.04    3435918.74
CY95    581055.90    3435640.78
CY111    580996.27    3435871.09
CY114    580966.05    3435899.70
CY94    581063.30    3435644.32
CY112    580995.68    3435870.55
CY159    580592.79    3435668.25
CY145-20    580781.45    3435888.99
CY66T1    580713.67    3435686.17
DY419    580340.52    3435337.89
CY145-15    580739.10    3435891.11
CY145-6    580659.38    3435846.15
DY391    580255.28    3435038.70
GY245    580305.50    3434583.69
CY104    581023.80    3435758.23
CY145-7    580680.70    3435854.85
CY145    580583.39    3435815.00
CY121    580890.08    3435927.46
CY117    580926.47    3435910.31
CY118    580929.77    3435917.88
CY116    580960.57    3435891.99
CY115    580965.43    3435898.74
CY73    581276.75    3435431.43
CY124    580848.07    3435926.39
CY86    581185.10    3435537.07
CY85    581189.55    3435544.03
CY161    580621.88    3435668.04
CY71    581286.09    3435405.46
CY70    581295.25    3435407.20
CY145-1    580606.89    3435824.36
CY62T2    580784.93    3435686.82
CY149    580742.38    3435667.82
CY165    580711.27    3435667.95
CY142    580581.01    3435819.89
CY145-3    580636.17    3435836.61
CY145-18    580784.76    3435886.08
CY145-19    580772.64    3435891.01
CY130-2    580766.36    3435892.78
CY157-1    580571.69    3435659.05
CY130-1    580758.97    3435907.07
CY103    581031.90    3435757.01
DY441    580531.34    3435769.28
CY101    581026.36    3435716.38
CY100    581034.45    3435717.58
CY76    581264.68    3435469.94
CY122    580888.42    3435919.33
CY145-10    580716.92    3435876.37
CY157    580571.69    3435668.45
CY109    581017.28    3435836.36
CY107    581021.50    3435795.48
CY105    581029.52    3435797.07
CY92    581081.10    3435608.88
DY520    580426.84    3435618.43
DY435    580415.18    3435512.47
DY426    580375.77    3435419.19
DY425    580377.22    3435410.64
DY507    580332.53    3435397.48
CY145-8    580682.84    3435842.77
CY145-13    580729.71    3435887.16
CY84    581190.41    3435545.11
DY423    580363.66    3435391.86
DY421    580352.16    3435364.60
DY413    580292.72    3434974.17
DY415    580310.36    3434824.91
GY258    580317.83    3434465.49
GY263    580321.67    3434435.94
GY249    580306.81    3434572.24
GY247    580306.41    3434575.46
GY255    580314.34    3434507.80
GY227    580273.08    3434851.43
GY260    580319.26    3434454.57
GY226    580276.30    3434851.83
GY251    580308.99    3434554.54
GY196    580357.50    3434438.41
GY198    580353.65    3434468.28
GY200    580347.04    3434527.58
DY431    580387.57    3435447.18
DY394    580263.12    3435174.81
DY392    580258.10    3435141.46
DY405    580303.97    3435251.35
DY393    580258.41    3435143.32
DY505    580320.75    3435369.86
GY243    580301.48    3434613.44
AY16-1    581004.23    3434843.98
DY414    580296.37    3434944.22
DY390    580256.00    3435037.24
DY531    580486.11    3435755.91
GY240    580294.13    3434673.05
DY502    580308.91    3435342.18
DY418    580328.43    3435308.13
DY428    580373.37    3435401.81
DY503    580297.15    3435314.46
DY402    580316.25    3435275.65
DY504    580295.38    3435309.10
GY238    580290.80    3434702.68
DY409    580289.77    3435198.90
DY396    580268.94    3435206.03
DY398    580276.19    3435237.07
DY411    580283.03    3435171.86
DY400    580285.17    3435267.59
DY406    580295.89    3435223.04
GY236    580287.34    3434732.23
GY242    580297.76    3434643.17
DY386    580264.78    3434947.61
DY388    580261.33    3434977.13
DY383    580271.57    3434893.20
GY218    580317.47    3434765.36
GY212    580329.16    3434676.14
GY228    580269.01    3434884.64
GY194    580361.26    3434408.97
GY232    580280.22    3434792.11
GY230    580276.62    3434821.58
GY234    580283.68    3434762.07
GY223    580314.06    3434795.18
GY207    580336.19    3434616.64
GY210    580332.78    3434646.48
GY213    580321.11    3434735.65
GY202    580343.44    3434557.29
GY205    580339.64    3434587.27
BY187    580440.95    3435465.34
BY29    581433.21    3435419.11
BY30    581465.42    3435423.34
BY27    581367.71    3435410.55
AY139    580786.25    3435715.33
AY138    580785.80    3435736.81
AY137    580786.09    3435758.41
AY136    580786.35    3435779.47
AY135    580785.19    3435801.25
AY134    580783.29    3435810.40
AY133    580785.45    3435823.11
AY132    580785.71    3435864.59
AY150    580783.60    3435432.78
AY148    580783.75    3435492.26
AY147    580784.25    3435512.34
AY146    580783.92    3435532.22
AY145    580782.79    3435552.08
AY144    580783.40    3435572.69
AY116    580801.77    3435597.64
AY143    580784.30    3435612.11
AY142    580784.31    3435666.78
AY115    580802.33    3435577.16
BY28    581400.34    3435414.99
AY123    580801.39    3435736.17
AY111    580802.06    3435499.95
AY110    580801.93    3435480.58
AY109    580802.48    3435461.26
AY118    580801.98    3435635.16
AY126    580802.31    3435796.62
AY125    580801.79    3435776.34
AY124    580801.39    3435756.32
AY59    580807.28    3435118.42
AY60    580809.53    3435090.52
BY8    580627.24    3435341.53
AY65-1    580809.01    3434933.49
AY107    580801.28    3435402.69
AY113    580799.94    3435539.02
AY112    580801.54    3435519.69
AY108    580801.48    3435421.19
AY130    580802.71    3435872.47
AY129    580802.58    3435859.74
AY128    580801.57    3435839.31
AY153    580784.18    3435373.00
AY152    580783.66    3435392.41
AY117    580801.70    3435615.04
AY106    580801.26    3435383.21
AY122    580801.42    3435715.95
AY121    580801.55    3435695.47
AY120    580803.97    3435675.28
BY6    580526.75    3435333.50
BY10    580690.45    3435344.61
AY58    580805.73    3435146.51
AY57    580802.64    3435174.65
AY57-1    580798.30    3435186.02
AY46    581029.81    3434958.66
AY42    580992.82    3434862.32
AY119    580801.88    3435655.57
AY127    580801.74    3435819.23
AY50    581066.11    3435079.30
BY13    580791.53    3435355.47
AY54    581061.71    3435183.42
AY54-3    581058.46    3435201.85
AY54-2    581060.93    3435184.24
BY5    580494.06    3435330.85
BY1    580354.87    3435319.36
BY2    580395.53    3435322.74
BY3    580428.34    3435325.31
BY4    580461.42    3435327.92
AY62    580815.86    3435022.85
AY65    580798.22    3434937.36
AY47    581037.45    3434980.75
AY48    581050.10    3435014.17
BY11    580725.79    3435349.87
AY51    581067.51    3435115.66
BY7    580594.23    3435339.12
AY70    580579.18    3435071.93
BY130    580615.93    3435074.68
BY129    580651.33    3435077.73
BY128    580682.14    3435080.32
BY128X    580716.07    3435083.08
BY113    581141.49    3435117.08
AY330    581063.52    3434976.90
AY57-5    580813.70    3435163.67
AY57-4    580813.27    3435175.77
BY188    580471.49    3435464.81
AY151    580783.46    3435412.47
BY181-4    581316.85    3435279.35
AY64    580810.97    3434967.79
AY64-2    580821.64    3434963.66
AY63    580818.14    3434993.78
BY9    580660.16    3435344.24
AY63-2    580827.69    3434992.65
BY14    580857.04    3435361.07
AY43    581001.76    3434885.30
BY22    581117.51    3435382.37
BY23    581150.59    3435384.85
AY114    580802.10    3435558.11
BY189    580500.68    3435464.72
BY15    580890.28    3435363.70
AY61    580812.58    3435058.00
BY26    581335.04    3435406.10
BY18    580989.71    3435371.55
AY75    580563.04    3435277.75
AY74A    580564.35    3435262.16
AY66    580588.38    3434951.41
BY20    581055.67    3435377.28
AY49    581061.08    3435045.34
BY112    581197.35    3435122.29
AY85    580555.16    3435542.10
AY44    581011.00    3434908.99
BY190    580530.33    3435465.03
BY25    581214.62    3435391.20
AY67    580586.41    3434977.99
AY68    580584.31    3435007.95
BY24    581183.58    3435387.44
BY17    580956.22    3435368.65
BY12    580758.52    3435352.85
AY52    581065.64    3435136.32
AY86    580554.11    3435562.56
AY87A    580555.48    3435580.70
AY88    580556.50    3435592.26
AY89    580555.38    3435619.88
AY90    580554.45    3435637.77
BY120    580958.43    3435102.89
BY19    581021.38    3435374.46
AY103    580570.82    3435401.40
AY45    581019.83    3434932.18
BY126    580750.82    3435085.91
BY125    580782.67    3435088.43
BY123    580846.00    3435093.93
BY16    580923.32    3435366.30
BY122    580880.64    3435096.67
AYS12    581111.34    3434788.54
AYS13    581085.76    3434798.42
AYS14    581058.55    3434808.92
AY94    580569.75    3435581.02
AY69    580581.11    3435038.77
AY71    580577.52    3435099.77
AY99    580571.01    3435471.85
AY76    580561.75    3435298.70
AY102    580570.21    3435421.65
AY101    580569.68    3435441.10
AY100    580570.76    3435450.81
AY67-2    580598.98    3434978.83
AY68-1    580596.42    3435008.79
AY105    580570.47    3435361.83
AY104    580570.62    3435382.06
AY69-2    580591.31    3435039.12
AY53    581063.58    3435169.10
BY118    581037.34    3435109.27
BY116    581099.65    3435114.99
BY114    581127.06    3435116.46
BY121    580918.30    3435099.85
BY112X    581217.24    3435123.81
BY111    581257.88    3435126.96
BY21    581084.43    3435379.67
AY96    580570.62    3435540.64
AY95    580570.94    3435561.02
AY74--1    580560.69    3435255.24
AY74--2    580573.54    3435256.33
AY75-2    580558.71    3435276.87
AY91    580572.57    3435645.08
AY98    580570.40    3435501.32
AY97    580570.96    3435521.48
BY119    581000.22    3435106.19
AYS3    581365.94    3434678.79
AYS4    581337.67    3434691.53
AY92    580572.42    3435627.88
BY191    580548.10    3435465.02
BY110    581287.94    3435129.57
BY109    581313.03    3435131.42
BY107    581382.67    3435137.60
BY106    581416.47    3435140.43
BY105    581454.99    3435143.76
BY104    581495.90    3435148.09
AYS9    581198.48    3434753.38
AYS10    581169.49    3434765.53
AYS11    581142.28    3434776.53
AY80    580553.69    3435420.94
AY81    580554.73    3435453.43
AYS5    581307.46    3434704.95
AYS6    581282.77    3434716.21
AYS7    581256.06    3434728.18
AYS8    581221.69    3434743.33
AY72    580574.22    3435134.46
AY73    580572.26    3435169.36
AY66-2    580587.55    3434951.46
AY66-1    580601.79    3434952.93
AY83    580554.89    3435521.14
AY93    580570.98    3435600.00
AYS15-1    581043.80    3434814.38
BY176-3    581347.08    3435006.49
BY181-3    581328.13    3435282.17
AY322    581306.61    3434945.51
AY323    581275.13    3434950.11
AY82    580555.29    3435501.95
AYS2    581390.56    3434667.86
BY178A    581343.65    3435098.93
BY108    581340.67    3435133.92
AY75-1    580571.61    3435278.69
FP9-1    580555.79    3435299.11
FP10-1    580570.24    3435299.58
AY77    580553.96    3435361.61
AY78    580553.60    3435381.24
AY79    580554.04    3435401.85
AYS1    581416.32    3434656.24
AY318    581468.64    3434903.61
AY317    581495.33    3434892.09
BY175-2    581333.31    3434968.40
BY180-2    581355.69    3435192.23
BY177-4    581349.34    3435038.32
AY217    581405.67    3435381.20
AY218    581438.73    3435385.86
AY219    581471.58    3435390.96
AY199    580693.85    3435314.43
AY200    580727.78    3435317.19
AY201    580760.73    3435319.67
BY1-2    580340.35    3435318.47
AY203    580860.21    3435328.48
AY204    580892.75    3435330.78
AY198    580661.97    3435311.66
AY201-1    580760.75    3435320.31
AY326    581184.92    3434962.04
AY327    581155.58    3434964.51
AY209    581056.57    3435344.18
AY329    581111.08    3434971.02
AY190    580365.43    3435286.93
AY191    580398.24    3435289.72
BY180    581343.18    3435190.88
BY181-2    581335.16    3435299.39
AY328    581126.48    3434969.00
AY205FP    580925.68    3435333.29
AY206    580958.37    3435336.04
AY207    580990.97    3435339.11
AY208    581023.72    3435341.37
AY197    580628.96    3435308.80
BY169    581233.04    3434767.77
BY170    581249.68    3434805.22
BY182    581312.01    3435328.93
AY210    581090.66    3435346.84
AY192    580431.25    3435292.51
AY193    580464.14    3435295.17
AY194    580496.99    3435298.13
AY195    580530.21    3435300.56
AY196    580595.99    3435305.92
AY325-1    581215.68    3434957.33
BY178-3    581353.57    3435070.18
BY178A-3    581355.62    3435097.05
BY171    581265.68    3434840.73
BY172    581280.40    3434873.46
BY173    581295.44    3434907.18
BY174    581303.23    3434925.53
BY177    581337.12    3435039.90
BY178    581341.42    3435070.23
AY324    581243.92    3434954.03
BY175    581322.43    3434977.06
BY176    581332.07    3435012.68
AY214    581275.14    3435363.98
AY215    581339.58    3435372.40
AY216    581373.22    3435376.66
AY190-1    580365.25    3435287.78
AY191-1    580398.25    3435290.47
AY211    581121.36    3435349.46
AY212    581154.11    3435352.15
AY213    581187.21    3435355.31
BY179    581343.49    3435164.68
BY182-2    581323.86    3435331.72
BY179-2    581355.82    3435168.45
BY181    581323.45    3435295.70
AY321    581353.86    3434939.74
AY320    581382.10    3434933.08
AY319    581410.52    3434925.37
AY202X    580825.50    3435324.83
AY31    580534.97    3434920.81
AY30    580565.72    3434923.26
AY18    580957.12    3434847.96
AY156    580730.05    3435465.43
AY160    580605.41    3435465.13
AY23    580789.15    3434913.20
AY22    580823.86    3434899.75
AY21    580858.72    3434886.25
AY20    580887.67    3434875.01
AY19    580924.13    3434860.51
AY34    580446.83    3434913.52
AY33    580475.43    3434915.90
AY32    580508.14    3434918.65
AY159    580636.25    3435465.95
AY158    580672.21    3435465.13
AY157    580700.42    3435465.28
AY37    580360.82    3434906.67
AY36    580386.24    3434908.66
AY35    580411.91    3434910.70
AY38    580335.56    3434904.75
AY17    580982.45    3434838.27
AY16    580996.81    3434832.94
AY149    580783.57    3435463.24
AY155    580760.63    3435465.11
AY27    580660.23    3434931.02
AY26    580695.56    3434931.49
AY25    580732.65    3434927.74
AY24    580767.01    3434920.21
AY29    580591.78    3434925.45
AY28    580629.04    3434928.41
AY24-2    580763.48    3434908.45
AY54-16    581042.97    3435303.46
AY55-10    580805.26    3435263.32
AY55-6    580795.48    3435271.29
AY55-11    580782.83    3435270.61
AY54-14    581048.91    3435300.35
AY54-15    581058.43    3435301.20
AY54-11    581041.38    3435333.30
AY54-10    581051.31    3435333.21
AY54-12    581060.60    3435334.95
AY55-5    580802.72    3435291.01
AY55-8    580793.30    3435244.74
AY55-1    580786.16    3435312.78
CY1206    580485.61    3435063.98
CY1202    580519.55    3435066.74
AY55-7    580792.25    3435256.46
AY55-9    580806.81    3435246.06
AY54-13    581051.68    3435304.64
AY55    580792.36    3435313.15
AY55-2    580801.33    3435312.96
AY55-4    580789.37    3435288.01
AY55-3    580793.96    3435292.19
CY1216    580321.55    3435050.40
CY1213    580361.28    3435053.64
CY1211    580402.72    3435057.36
CY1208    580446.16    3435060.60
AY86-2    580544.14    3435564.63
AY86-3    580538.09    3435566.13
AY86-7    580506.14    3435574.50
CY1199    580556.57    3435069.75
AY86-10    580470.33    3435584.35
AY93-2    580582.76    3435599.91
AY93-3    580570.97    3435616.86
AY97-2    580583.28    3435521.24
CY145-22    580784.38    3435907.32
CYCSK23    581044.72    3435799.87
CYCSK22    581248.45    3435508.48
DY535    580510.67    3435813.62
DY445    580556.36    3435824.06
DY412    580280.06    3435125.55
AY131    580817.24    3435928.50
BY113-1    581159.11    3435118.73
BY181-5    581321.52    3435256.01
BY112-1    581179.00    3435120.81
BY26-2    581238.57    3435390.89
BY25-2    581222.79    3435391.60
AY213CSK    581228.12    3435359.40
CSK4    581095.32    3434987.59
BY180-3    581341.89    3435227.72
AY16-2    581015.06    3434839.88
AY54-19    581044.69    3435265.69
AY55-12    580784.95    3435224.58
myoutfall1    580790.47    3435946.52
myoutfall2    581239.67    3435359.54
大渠荡    580785.51    3434575.69
大洋港    581089.82    3434964.05
甘溪市河    580854.04    3435211.17
三白荡    580187.07    3435523.62
行政河    580688.44    3435888.76
洋砂荡    581198.37    3435669.20

[VERTICES]
;Name           X               Y

[SYMBOLS]
;Gage              X              Y
RG1              580000              3434545

