[TITLE]
;;Project Title/Notes 
test

[OPTIONS]
;;Option             Value
FLOW_UNITS           LPS
INFILTRATION         HORTON
FLOW_ROUTING         DYNWAVE
LINK_OFFSETS         DEPTH
MIN_SLOPE            0
ALLOW_PONDING        YES
SKIP_STEADY_STATE    YES

START_DATE           07/15/2025
START_TIME           00:00:00
REPORT_START_DATE    07/15/2025
REPORT_START_TIME    00:00:00
END_DATE             07/15/2025
END_TIME             01:00:00
REPORT_STEP          00:05:00
WET_STEP             00:05:00
DRY_STEP             01:00:00
ROUTING_STEP         0:00:10 

INERTIAL_DAMPING     PARTIAL
NORMAL_FLOW_LIMITED  BOTH
FORCE_MAIN_EQUATION  H-W
VARIABLE_STEP        0.75
LENGTHENING_STEP     0
MIN_SURFAREA         12.566
MAX_TRIALS           8
HEAD_TOLERANCE       0.005
SYS_FLOW_TOL         5
LAT_FLOW_TOL         5
MINIMUM_STEP         0.5
THREADS              1

[TIMESERIES]
;;Name           Date       Time       Value     
;;-------------- ---------- ---------- ----------
TS1H50_CHI	07/15/2025	00:00:00	35.8254
TS1H50_CHI	07/15/2025	00:05:00	40.3498
TS1H50_CHI	07/15/2025	00:10:00	46.5694
TS1H50_CHI	07/15/2025	00:15:00	55.7805
TS1H50_CHI	07/15/2025	00:20:00	71.1819
TS1H50_CHI	07/15/2025	00:25:00	87.0616
TS1H50_CHI	07/15/2025	00:30:00	63.9009
TS1H50_CHI	07/15/2025	00:35:00	51.6023
TS1H50_CHI	07/15/2025	00:40:00	43.8176
TS1H50_CHI	07/15/2025	00:45:00	38.3811
TS1H50_CHI	07/15/2025	00:50:00	34.3369
TS1H50_CHI	07/15/2025	00:55:00	31.1926
TS1H50_CHI	07/15/2025	01:00:00	0.0000

[RAINGAGES]
;;Name Format Interval SCF DataSource SourceName StationID RainUnits
;;------------------------------------------------------------------
Gage1 INTENSITY 00:05 1.0 TIMESERIES TS1H50_CHI  

[SUBCATCHMENTS]
;;Name RainGage Outlet Area Imperv Width Slope CurbLen SnowPack
;;-------------------------------------------------------------
  S1 Gage1 vir3   6.979822 23.987342  475.548364  2.069095 0.0 
  S2 Gage1 J209  61.958734  9.106105 1416.849669  2.710413 0.0 
  S3 Gage1 vir2  79.978677 11.098655 1609.754369  1.237199 0.0 
  S4 Gage1 J212   1.228873 74.230769  199.538154  3.941319 0.0 
  S5 Gage1 J212   2.517397 71.666667  285.593545  1.091227 0.0 
  S6 Gage1 J204   2.047130 13.653846  257.540334  2.415081 0.0 
  S7 Gage1 J204   6.644265  6.285714  463.976496  1.583008 0.0 
  S8 Gage1 J210   8.275238 40.869565  517.800837  2.142346 0.0 
 S10 Gage1 J213   0.540798 67.500000  132.370102  8.106066 0.0 
 S11 Gage1 J205  50.089490 12.958633 1273.930719  1.401908 0.0 
 S12 Gage1 J205  63.785681  6.671388 1437.586885  1.705161 0.0 
 S13 Gage1 J211   3.314847 67.837838  327.720984  1.053845 0.0 
 S14 Gage1 J133   1.899578 80.000000  248.085320  1.840706 0.0 
 S15 Gage1 J133   3.073297 68.636364  315.554810  2.275075 0.0 
 S16 Gage1 J131  12.965510 23.591549  648.137739  1.921710 0.0 
 S18 Gage1 J130   4.565640 71.176471  384.612466  2.491609 0.0 
 S19 Gage1 J130   1.816640 47.857143  242.609042  1.528326 0.0 
 S20 Gage1 J207   2.239377 80.000000  269.361875  2.903129 0.0 
 S21 Gage1 J201   1.070428 66.363636  186.230700  2.528577 0.0 
 S22 Gage1 J201   3.741865 69.772727  348.190211  1.602103 0.0 
 S23 Gage1 J203   7.361095 52.965116  488.364078  1.358820 0.0 
 S24 Gage1 J203  16.916228  4.447236  740.328173  2.186475 0.0 
 S25 Gage1 J214  11.601178 46.929134  613.089037  1.470111 0.0 
 S26 Gage1 J202   1.322975 80.000000  207.037145  0.813025 0.0 
 S27 Gage1 J202   5.934669 78.863636  438.501168  1.188116 0.0 
 S28 Gage1 J202   6.050336 17.971014  442.753751  2.001873 0.0 
 S29 Gage1 J119   1.340283 80.000000  208.387054  0.570539 0.0 
 S30 Gage1 J199   3.836279 71.279070  352.555569  0.521874 0.0 
 S31 Gage1 J199   0.520967 67.500000  129.920507  1.874301 0.0 
 S32 Gage1 J116   3.047223 80.000000  314.213369  0.710798 0.0 
 S33 Gage1 J141   2.983830 80.000000  310.927817  0.991666 0.0 
 S34 Gage1 J118   5.624118 80.000000  426.873997  0.706364 0.0 
 S35 Gage1  J94   2.285170 80.000000  272.102011  0.809648 0.0 
 S36 Gage1 J125   1.615920 80.000000  228.813891  0.872937 0.0 
 S37 Gage1 J129   5.360221 62.894737  416.738730  4.651925 0.0 
 S38 Gage1 J128   3.257697 80.000000  324.883643  0.249943 0.0 
 S39 Gage1 J121   4.950775 80.000000  400.506082  2.570018 0.0 
 S40 Gage1 J121   2.639612 80.000000  292.443884  1.394304 0.0 
 S41 Gage1 J126   4.501575 80.000000  381.904461  1.433133 0.0 
 S42 Gage1 J127   0.390953 80.000000  112.547177  0.138760 0.0 
 S44 Gage1 J117   2.183140 80.000000  265.958135  0.814273 0.0 
 S45 Gage1 J117   2.891309 77.580645  306.069283  0.540712 0.0 
 S46 Gage1 J192   2.455429 74.444444  282.056559  1.876444 0.0 
 S47 Gage1 J112   2.704488 77.580645  296.015891  0.732374 0.0 
 S48 Gage1 J242   2.353781 54.137931  276.156665  1.658657 0.0 
 S49 Gage1 J240   0.753189 80.000000  156.215672  0.600688 0.0 
 S50 Gage1 J233   0.670642 37.142857  147.406943  1.562071 0.0 
 S51 Gage1 J227   6.389452 13.472222  454.992586  9.358378 0.0 
 S52 Gage1 J227   0.776139 80.000000  158.577798  6.670197 0.0 
 S53 Gage1 J234   0.235500 80.000000   87.351059  0.861162 0.0 
 S54 Gage1 J237   0.334450 80.000000  104.096904  1.344310 0.0 
 S55 Gage1 vir1  15.269200  8.363095  703.364836  2.187690 0.0 
 S56 Gage1 J132  19.109614 35.813953  786.861801  1.792778 0.0 
 S57 Gage1 J231   0.455182 80.000000  121.440959  1.324578 0.0 
 S58 Gage1 J230   0.373835 80.000000  110.055642  1.277525 0.0 
 S59 Gage1 J232   0.361776 65.000000  108.266049  0.301713 0.0 
 S60 Gage1 J239   0.231305 80.000000   86.569598  1.422326 0.0 
 S61 Gage1 J245   7.214459 67.933333  483.475395  1.166244 0.0 
 S62 Gage1 J243   4.990658 80.000000  402.116039  0.971258 0.0 
 S63 Gage1 J235   2.233160 47.391304  268.987702  1.862616 0.0 
 S64 Gage1 J114   1.372170 80.000000  210.851422  0.536552 0.0 
 S65 Gage1 J247   2.605463 80.000000  290.546022  0.542342 0.0 
 S66 Gage1  J95   7.561285 74.642857  494.960248  2.713689 0.0 
 S67 Gage1 J109  10.739098 77.478992  589.870127  1.945109 0.0 
 S68 Gage1 J244   1.482093 75.588235  219.134227  0.994274 0.0 
 S69 Gage1 J246   5.781283 77.692308  432.797377  1.043255 0.0 
 S70 Gage1  J93   2.549265 80.000000  287.395496  0.770798 0.0 
 S71 Gage1 J229   1.465366 80.000000  217.894134  2.596233 0.0 
 S72 Gage1 J113   3.311488 80.000000  327.554901  0.444651 0.0 
 S73 Gage1 J248   1.411813 80.000000  213.875565  0.396545 0.0 
 S74 Gage1 J115   1.884854 80.000000  247.121973  0.409362 0.0 
 S75 Gage1 J141   1.656061 68.750000  231.638472  0.891535 0.0 
 S76 Gage1 J156   2.860742 15.344828  304.447125  1.912293 0.0 
 S77 Gage1 J111   1.036277 80.000000  183.235877  1.387088 0.0 
 S78 Gage1 J110   2.707323 80.000000  296.171033  0.972001 0.0 
 S79 Gage1 J215  33.637374 24.836957 1043.959257  1.880380 0.0 
 S80 Gage1 J216  46.695289 13.243762 1230.011125  3.169656 0.0 
 S81 Gage1 J140   9.775867 26.682243  562.794884  1.506024 0.0 
 S82 Gage1 J140  67.213265 13.386881 1475.706534  1.936815 0.0 
 S83 Gage1 J140  10.417697 48.922414  580.976246  2.238723 0.0 
 S84 Gage1 J197  11.554317 48.333333  611.849539  2.306603 0.0 
 S85 Gage1 J195   3.543169 76.250000  338.819547  1.762649 0.0 
 S86 Gage1 J222   4.914820 12.946429  399.049061  2.765076 0.0 
 S87 Gage1 J219  11.500446 10.116279  610.421546  1.951556 0.0 
 S88 Gage1 J217   7.832124 17.151163  503.746786  3.516500 0.0 
 S89 Gage1 J220  74.046787  5.231990 1548.907975  3.785061 0.0 
 S90 Gage1 J218  25.456873  5.803571  908.186490  3.044220 0.0 
 S91 Gage1 J221   0.450992  5.000000  120.880627  4.135797 0.0 
 S92 Gage1 J191  62.142369  9.311594 1418.947761  2.161545 0.0 
 S93 Gage1 J200   1.075847 61.250000  186.701474  1.491935 0.0 
 S94 Gage1 J196   1.530975 56.562500  222.718660  2.644550 0.0 
 S95 Gage1 J139   7.609489 73.895349  496.535432  2.190195 0.0 
 S96 Gage1 J139   6.652138 60.479452  464.251318  1.871307 0.0 
 S97 Gage1 J122   0.351368 80.000000  106.697362  1.137315 0.0 
 S98 Gage1 J208   9.428368 70.441176  552.701654  2.480068 0.0 
 S99 Gage1 J123   2.863213 77.580645  304.578589  3.170982 0.0 
S100 Gage1 J123   2.030744 80.000000  256.507485  1.751966 0.0 
S101 Gage1 J122   3.429060 80.000000  333.318971  1.311049 0.0 
S102 Gage1 J120   2.445751 80.000000  281.500143  0.475798 0.0 
S103 Gage1 J124   2.748729 72.741935  298.427218  3.302896 0.0 
S104 Gage1 J137   0.065413 55.194282   46.036767  0.578192 0.0 
S105 Gage1 J137   4.899409 41.818182  398.422937  1.689770 0.0 
S106 Gage1 J135   1.143252 80.000000  192.461307  1.402695 0.0 
S107 Gage1 J134   5.381245 78.706897  417.555183  1.160433 0.0 
S108 Gage1 J223  29.506501 12.609375  977.757959  2.169288 0.0 
S109 Gage1 J223  56.785333  5.521327 1356.408781  2.186211 0.0 
S110 Gage1 vir4   4.717774  4.907407  390.967888  5.630985 0.0 
S111 Gage1 J223  25.676274 16.529210  912.091699  2.595023 0.0 
S112 Gage1 J107   3.278475 73.918919  325.918053  0.624091 0.0 
S113 Gage1 J149   0.256730 80.000000   91.203423  1.127586 0.0 
S114 Gage1 J153   0.897653 80.000000  170.540203  2.757294 0.0 
S115 Gage1 J108   3.014662 69.583333  312.530054  1.390085 0.0 
S116 Gage1 J108   3.392348 80.000000  331.529881  1.418264 0.0 
S117 Gage1 J142   1.747958 24.736842  237.978636  1.892713 0.0 
S118 Gage1 J172  11.205962 37.738095  602.555544  1.755143 0.0 
S119 Gage1 J144   0.792742 61.250000  160.264921  0.959808 0.0 
S121 Gage1 J143   0.256373 42.500000   91.139911  1.425989 0.0 
S122 Gage1 J145   0.881125 45.909091  168.962870  0.909017 0.0 
S123 Gage1 J146   0.994735 55.000000  179.525551  1.931788 0.0 
S124 Gage1 J148   0.461870 80.000000  122.329893  0.941303 0.0 
S125 Gage1 J147   0.527443 80.000000  130.725538  2.143529 0.0 
S126 Gage1 J166   0.468261 80.000000  123.173288  1.290081 0.0 
S127 Gage1 J165   0.650875 70.625000  145.218316  0.953439 0.0 
S128 Gage1 J136   1.998502 80.000000  254.463105  1.310762 0.0 
S130 Gage1 J170   0.392538 80.000000  112.775137  1.172040 0.0 
S131 Gage1 J150   0.349989 80.000000  106.487782  1.314797 0.0 
S132 Gage1 J171   3.113681 13.823529  317.621267  2.402998 0.0 
S133 Gage1 J138  31.796292 28.531073 1014.987618  1.894951 0.0 
S134 Gage1 J173   3.891551 10.232558  355.086271  1.811906 0.0 
S135 Gage1 J151   0.105665 79.974943   58.511120  2.622601 0.0 
S136 Gage1 J164   0.951110 73.750000  175.544763  1.940848 0.0 
S137 Gage1 J152   0.566903 80.000000  135.527296  1.501002 0.0 
S138 Gage1 J163   0.850602 51.875000  166.010519  1.321835 0.0 
S139 Gage1 J168   0.789738 71.666667  159.960988  0.658400 0.0 
S140 Gage1 J169   1.131598 61.250000  191.477833  2.120619 0.0 
S141 Gage1 J179   1.036827 20.000000  183.284445  1.209429 0.0 
S142 Gage1 J167   1.361269 63.928571  210.012155  1.560020 0.0 
S143 Gage1 J190   1.152317  5.000000  193.222889  1.438369 0.0 
S144 Gage1 J178   0.916878  5.000000  172.356783  1.821130 0.0 
S145 Gage1 J241 127.650403  2.674173 2033.684603  9.859607 0.0 
S146 Gage1 J241   5.705759 19.426230  429.961143  1.884191 0.0 
S147 Gage1 J226   5.217918 77.413793  411.169734  3.949322 0.0 
S148 Gage1  J96   1.827055 80.000000  243.303487  3.356141 0.0 
S149 Gage1 J225   2.889880 80.000000  305.993672  4.815346 0.0 
S150 Gage1  J99   2.136131 74.000000  263.079137  4.703388 0.0 
S151 Gage1 J100   3.934592 76.590909  357.044499  2.539328 0.0 
S152 Gage1 J100   1.788957 76.250000  240.753410  4.252920 0.0 
S153 Gage1 J102   3.238526 63.783784  323.926309  3.038152 0.0 
S154 Gage1 J102   2.793517 80.000000  300.848706  3.202567 0.0 
S155 Gage1 J224   2.094424 80.000000  260.498230  4.913285 0.0 
S156 Gage1  J91   3.968093 72.346939  358.561312  5.983428 0.0 
S157 Gage1 J105   5.119347 18.947368  407.267533 12.738693 0.0 
S158 Gage1 J105  20.117517  3.901345  807.345995 11.954048 0.0 
S159 Gage1  J83   2.864969  4.531250  304.671973  6.728228 0.0 
S160 Gage1  J83  18.394726 16.642157  772.003312 15.065453 0.0 
S161 Gage1  J90  13.604616 35.782313  663.919837 12.881127 0.0 
S162 Gage1  J98   2.528036 35.689655  286.196398  7.108052 0.0 
S163 Gage1  J84   2.906825 36.875000  306.889423  8.521252 0.0 
S164 Gage1 J228  58.797802  2.622699 1380.235051 12.359576 0.0 
S166 Gage1 J228   5.135251 35.789474  407.899674 12.846307 0.0 
S167 Gage1  J87   2.116520 37.608696  261.868750  7.296273 0.0 
S168 Gage1  J69   3.624251 17.804878  342.674377  4.017411 0.0 
S169 Gage1  J81   3.459554 26.794872  334.797779  2.963624 0.0 
S170 Gage1  J85   2.493396 54.137931  284.228808  8.691072 0.0 
S171 Gage1  J82   9.372654 15.436893  551.066241  9.864727 0.0 
S172 Gage1  J89   2.556057 61.250000  287.778106  3.544767 0.0 
S173 Gage1  J88   1.993778 69.772727  254.162156  2.975930 0.0 
S174 Gage1  J18   4.653250 49.117647  388.285079  4.454299 0.0 
S175 Gage1  J74   4.155295 12.777778  366.921722  4.880478 0.0 
S176 Gage1  J74   8.965940  1.100000  538.977244  9.392824 0.0 
S177 Gage1  J79   5.532394 16.885246  423.378753  4.972980 0.0 
S178 Gage1  J86   3.099967 31.714286  316.920992  4.098768 0.0 
S179 Gage1  J75   3.927366  1.363636  356.716491  7.279557 0.0 
S180 Gage1  J78   1.666895 21.388889  232.394905  3.822152 0.0 
S181 Gage1 J104   0.253709 80.000000   90.665169  3.964543 0.0 
S182 Gage1 J104   2.270997 45.384615  271.256912  6.577066 0.0 
S183 Gage1  J61   3.483408  1.025641  335.950006  8.665865 0.0 
S184 Gage1  J61   6.878350  0.789474  472.078939 12.022349 0.0 
S185 Gage1 J236  82.068001  1.957237 1630.645031 11.931974 0.0 
S186 Gage1  J70   5.679729  7.177419  428.979294  4.993932 0.0 
S187 Gage1  J77   1.596381 18.235294  227.426375  2.969318 0.0 
S188 Gage1  J73   7.905857  3.626374  506.112390  7.400016 0.0 
S189 Gage1  J80   9.379562  1.201923  551.269273  3.737357 0.0 
S190 Gage1  J58   2.891899 43.484848  306.100496  5.332144 0.0 
S191 Gage1  J53   2.136753 63.695652  263.117440  3.375963 0.0 
S192 Gage1  J54   3.464211 64.210526  335.023055  2.860396 0.0 
S193 Gage1  J54   4.735052  3.365385  391.683161  5.429729 0.0 
S194 Gage1  J67   5.675617  1.290323  428.823954 11.954619 0.0 
S195 Gage1  J49  12.382539  9.087591  633.398987  7.071262 0.0 
S196 Gage1  J49   3.655624 18.720930  344.154340  3.076208 0.0 
S197 Gage1  J49   0.341141  5.000000  105.133034  6.009735 0.0 
S198 Gage1  J52  12.114111  3.014706  626.495957  5.360789 0.0 
S199 Gage1  J52   0.964569  5.000000  176.782480  6.080203 0.0 
S200 Gage1  J51   7.597691  8.132530  496.150372  5.097834 0.0 
S201 Gage1  J51   1.824800 36.904762  243.153258  4.356508 0.0 
S202 Gage1  J47  25.363493  3.197880  906.519266  5.356465 0.0 
S203 Gage1  J56   1.734624 56.315789  237.069218  1.906862 0.0 
S204 Gage1  J48   4.207004  1.413043  369.197690  2.652411 0.0 
S205 Gage1  J12   4.057897 50.454545  362.595995  2.635539 0.0 
S206 Gage1  J12   0.836495 59.545455  164.628196  0.887887 0.0 
S207 Gage1  J71   3.618917 15.609756  342.422143  5.245456 0.0 
S208 Gage1  J34   4.887922 12.830189  397.955623  4.379928 0.0 
S209 Gage1  J34   5.068354 27.796610  405.234106  1.967650 0.0 
S210 Gage1  J36   1.259861 22.916667  202.038384  4.391563 0.0 
S211 Gage1  J36   3.963542 32.857143  358.355642  4.645187 0.0 
S212 Gage1  J10  23.562880 21.980769  873.748994  6.372124 0.0 
S213 Gage1  J42  10.947399 14.125000  595.563357  3.982012 0.0 
S214 Gage1  J42   0.336728  5.000000  104.450827  2.618730 0.0 
S215 Gage1  J38  11.216382 11.181102  602.835619  4.225837 0.0 
S216 Gage1  J39   1.435886  8.529412  215.691233  2.863378 0.0 
S217 Gage1  J39   2.619383  7.142857  291.321149  6.411098 0.0 
S218 Gage1  J35   0.449268  2.500000  120.649371  6.907902 0.0 
S219 Gage1  J44   3.246964  1.447368  324.348031  6.361014 0.0 
S220 Gage1  J45   2.513115  2.321429  285.350549  3.612427 0.0 
S221 Gage1  J45   2.154433  0.217391  264.203789  4.478888 0.0 
S222 Gage1  J45   5.246385  7.068966  412.289782  3.340112 0.0 
S223 Gage1  J66   3.467842  3.684211  335.198580  2.490285 0.0 
S224 Gage1   J8   6.734702 35.131579  467.123491  4.431457 0.0 
S225 Gage1  J42   2.933839 10.625000  308.312147  3.773646 0.0 
S226 Gage1  J43   2.886438  9.500000  305.811392  4.202185 0.0 
S227 Gage1  J40   5.644617 20.158730  427.651265  4.467816 0.0 
S228 Gage1  J40   0.059913  5.000000   44.058919  1.311662 0.0 
S229 Gage1  J41   5.422244  5.000000  419.142826  7.391180 0.0 
S230 Gage1  J46   2.986465  2.727273  311.065046  6.870601 0.0 
S231 Gage1  J46   2.670727  2.241379  294.162457  8.844332 0.0 
S232 Gage1  J37   3.661496  1.000000  344.430662  6.548019 0.0 
S233 Gage1  J92   2.320463 80.000000  274.195173  2.568190 0.0 
S234 Gage1 J238   2.165347 80.000000  264.872153  1.637737 0.0 
S235 Gage1 J160   0.781124 80.000000  159.086223  1.650671 0.0 
S236 Gage1 J159   0.287578 80.000000   96.527255  1.677796 0.0 
S237 Gage1 J155   0.476056 80.000000  124.194255  2.242409 0.0 
S238 Gage1 J154   0.646923 80.000000  144.776775  1.924544 0.0 
S239 Gage1 J161   0.367833 61.250000  109.168696  1.049641 0.0 
S240 Gage1 J161   3.143197 12.142857  319.123129 23.094973 0.0 
S241 Gage1 J189   2.351110 47.000000  275.999962  3.336155 0.0 
S242 Gage1 J175   0.519682 80.000000  129.760187  0.986458 0.0 
S243 Gage1 J187  19.494938 26.353211  794.755296  7.918246 0.0 
S244 Gage1 J162   0.354269 80.000000  107.136874  0.638133 0.0 
S245 Gage1 J186   2.289580 22.068966  272.364447 14.589621 0.0 
S246 Gage1 J186   7.404590 13.461538  489.804764 13.833665 0.0 
S247 Gage1 J180   0.209984 80.000000   82.483296  0.694504 0.0 
S248 Gage1 J183   0.416640 50.000000  116.185720  3.798736 0.0 
S249 Gage1 J176   0.846626 30.000000  165.622151  4.201674 0.0 
S250 Gage1 J174   0.763826 27.500000  157.314848  1.389848 0.0 
S251 Gage1 J181  38.014541  7.570755 1109.806801 10.801030 0.0 
S252 Gage1 J181 146.137894  4.317901 2175.975132  7.992687 0.0 
S253 Gage1 J182   3.898368  2.500000  355.397115 28.205637 0.0 
S254 Gage1 J182  21.384641  2.729167  832.383540 12.390660 0.0 
S255 Gage1  J24   6.729691 12.094595  466.949657  3.870670 0.0 
S256 Gage1  J24   9.393199  9.190476  551.669878 14.078757 0.0 
S257 Gage1  J24 125.163081  3.152798 2013.773526  9.131037 0.0 
S258 Gage1 J157   1.804076 69.047619  241.768623  1.698214 0.0 
S259 Gage1 J106   6.856895 60.263158  471.342138  2.276490 0.0 
S260 Gage1 J103   6.835508 75.000000  470.606478  5.574581 0.0 
S261 Gage1 J101   1.925980 80.000000  249.803402  4.460258 0.0 
S262 Gage1 J101  15.704220 37.085714  713.313902  9.156202 0.0 
S263 Gage1 J188   2.446511 80.000000  281.543880  2.892176 0.0 
S264 Gage1  J97   2.579990 28.928571  289.122261  8.037273 0.0 
S265 Gage1  J97   5.241289 33.035714  412.089500  7.861756 0.0 
S266 Gage1  J97   2.420098 60.555556  280.019939  9.237349 0.0 
S267 Gage1 J184   6.268928  1.830986  450.680901 19.799208 0.0 
S268 Gage1 J182  22.302818  0.609756  850.065478  7.675347 0.0 
S269 Gage1 J158   1.184843 15.833333  195.930908  2.458056 0.0 
S270 Gage1  J19   1.307117 15.000000  205.792559  3.613712 0.0 
S271 Gage1  J20   0.271047 30.000000   93.711871  2.223765 0.0 
S273 Gage1  J21   2.674314 29.193548  294.359942  3.781671 0.0 
S274 Gage1  J21   2.771604 45.178571  299.666412  3.127704 0.0 
S275 Gage1  J23   7.730222  5.882353  500.458982  4.665814 0.0 
S276 Gage1  J23   5.637012  5.241935  427.363080  8.511315 0.0 
S277 Gage1  J23  56.050360  4.059011 1347.602187  8.803093 0.0 
S278 Gage1 J185   4.961835  5.370370  400.953165 19.269468 0.0 
S279 Gage1 J185   2.475312  0.000000  283.196228  8.579792 0.0 
S280 Gage1  J17   8.390628 21.489362  521.398463  4.001567 0.0 
S281 Gage1  J25   7.068788 19.620253  478.569454  5.402947 0.0 
S282 Gage1  J25   1.903472  4.565217  248.339457  9.729834 0.0 
S283 Gage1  J76   6.552541 50.205479  460.762751  4.403338 0.0 
S284 Gage1 J177   1.769618  8.750000  239.448563  2.971468 0.0 
S285 Gage1  J22   0.810020  5.000000  162.002047  3.626827 0.0 
S286 Gage1  J15   6.372248  7.391304  454.379606 11.175160 0.0 
S287 Gage1  J16   3.750036 37.142857  348.570183  3.776098 0.0 
S288 Gage1  J72   3.137464 32.083333  318.832001  4.983507 0.0 
S289 Gage1  J72   2.925492 48.030303  307.873231  3.294719 0.0 
S290 Gage1  J14   1.708191 72.500000  235.256040  2.673517 0.0 
S291 Gage1  J28   5.679975 25.238095  428.988565  6.062376 0.0 
S292 Gage1  J28  21.472410  5.126050  834.089965  6.344318 0.0 
S293 Gage1  J58   4.516796 48.921569  382.549605  3.877799 0.0 
S294 Gage1  J55   2.388924 77.115385  278.210613  1.687904 0.0 
S295 Gage1  J59   3.302300 67.500000  327.100175  2.869167 0.0 
S296 Gage1  J31   3.901993 48.902439  355.562334  3.701359 0.0 
S297 Gage1  J31   3.849226 68.333333  353.150021  1.682938 0.0 
S298 Gage1  J68   2.111594 59.545455  261.563845  6.098981 0.0 
S299 Gage1  J56   4.455102 12.500000  379.928029  4.545527 0.0 
S300 Gage1  J57   1.837444  4.722222  243.994255  3.683538 0.0 
S301 Gage1  J13   3.913464 22.738095  356.084591  5.179706 0.0 
S302 Gage1  J27   4.676262 57.941176  389.244002  3.793593 0.0 
S303 Gage1  J27   7.235010 73.518519  484.163523  2.534458 0.0 
S304 Gage1  J30   2.664130 59.666667  293.798920  2.011297 0.0 
S305 Gage1  J29  10.365893 23.672566  579.529913 13.093379 0.0 
S306 Gage1  J11   2.736061 62.500000  297.738752  1.447300 0.0 
S307 Gage1  J33   4.829742 54.433962  395.580116  2.077852 0.0 
S308 Gage1  J50   2.199151 15.238095  266.931615  3.504082 0.0 
S309 Gage1  J50   2.307220 12.758621  273.411663  6.302435 0.0 
S310 Gage1  J50   2.756736 23.437500  298.861581  3.207635 0.0 
S311 Gage1  J60   9.179169  1.138614  545.348589  9.419204 0.0 
S312 Gage1  J62   5.549708 32.222222  424.040742  5.639559 0.0 
S313 Gage1  J63   4.404826 12.978723  377.778179  6.971730 0.0 
S314 Gage1  J26   9.314786 37.196262  549.362418  3.967813 0.0 
S315 Gage1  J26   4.998848 50.588235  402.445856  5.210443 0.0 
S316 Gage1  J26 121.063172  2.788104 1980.516798  9.375789 0.0 
S317 Gage1  J32   4.925482 65.000000  399.481676  2.416575 0.0 
S318 Gage1  J32   1.316751 25.000000  206.549589  1.107777 0.0 
S319 Gage1   J5  28.638299  6.556604  963.265744  6.383829 0.0 
S320 Gage1   J9  30.360218  6.290801  991.801930  8.811297 0.0 
S321 Gage1   J4 326.614903  2.238621 3253.048239  8.547482 0.0 
S323 Gage1   J6   9.216769 42.135922  546.464384  3.808132 0.0 
S324 Gage1  J64   2.659369 80.000000  293.536296  2.638824 0.0 
S325 Gage1   J7   5.152681 53.035714  408.591321  4.678453 0.0 
S326 Gage1   J7 115.949990 12.310078 1938.241385  4.069379 0.0 
S327 Gage1  J65   2.047334 13.409091  257.553175  7.513494 0.0 
S328 Gage1  J65  21.833631 25.959184  841.076473  6.412996 0.0 
S329 Gage1 J205   5.290590  6.186441  414.023092  2.361895 0.0 
S331 Gage1  J34  94.336924  5.737393 1748.289548  9.246053 0.0 
S333 Gage1   J8   7.479030  5.493827  492.260659  4.580488 0.0 
S334 Gage1   J8   8.504498 10.212766  524.924494  3.018207 0.0 
S335 Gage1 vir6  18.344793  4.258373  770.954789  4.446992 0.0 
S336 Gage1 vir5   9.043976 54.038462  541.317686  2.800334 0.0 
S350 Gage1 J200  16.926452 60.053191  740.551843  1.629824 0.0 
S351 Gage1 J133   2.429535 74.259259  280.565403  4.645207 0.0 
S353 Gage1 J111   3.380587 80.000000  330.954725  2.431661 0.0 
S354 Gage1 J101   2.321025 63.333333  274.228399  3.739564 0.0 
S355 Gage1 J209  11.351760 24.959677  606.462720  1.565401 0.0 
S356 Gage1 J204  18.659347 33.589109  777.536400  1.543800 0.0 

[SUBAREAS]
;;Name N_Imperv N_Perv S_Imperv S_Perv PctZero RouteTo PctRouted
;;--------------------------------------------------------------
  S1 0.104684 0.180506 2.253165  6.759494 21.993671 OUTLET 0.0
  S2 0.110378 0.195349 2.062500  6.652616 14.843750 OUTLET 0.0
  S3 0.120914 0.156155 2.081839  6.276906 15.568946 OUTLET 0.0
  S4 0.037692 0.287692 2.923077  8.769231 47.115385 OUTLET 0.0
  S5 0.041111 0.282222 2.888889  8.666667 45.833333 OUTLET 0.0
  S6 0.118462 0.158462 2.115385  6.346154 16.826923 OUTLET 0.0
  S7 0.107429 0.211429 2.028571  6.771429 13.571429 OUTLET 0.0
  S8 0.082174 0.216522 2.478261  7.434783 30.434783 OUTLET 0.0
 S10 0.046667 0.273333 2.833333  8.500000 43.750000 OUTLET 0.0
 S11 0.116106 0.167788 2.107914  6.431655 16.546763 OUTLET 0.0
 S12 0.111700 0.192748 2.014164  6.541076 13.562323 OUTLET 0.0
 S13 0.046216 0.274054 2.837838  8.513514 43.918919 OUTLET 0.0
 S14 0.030000 0.300000 3.000000  9.000000 50.000000 OUTLET 0.0
 S15 0.045152 0.275758 2.848485  8.545455 44.318182 OUTLET 0.0
 S16 0.094930 0.213521 2.253521  7.098592 22.007042 OUTLET 0.0
 S18 0.041765 0.281176 2.882353  8.647059 45.588235 OUTLET 0.0
 S19 0.072857 0.231429 2.571429  7.714286 33.928571 OUTLET 0.0
 S20 0.030000 0.300000 3.000000  9.000000 50.000000 OUTLET 0.0
 S21 0.048182 0.270909 2.818182  8.454545 43.181818 OUTLET 0.0
 S22 0.043636 0.278182 2.863636  8.590909 44.886364 OUTLET 0.0
 S23 0.066047 0.242326 2.639535  7.918605 36.482558 OUTLET 0.0
 S24 0.117286 0.183116 2.000000  6.442211 12.500000 OUTLET 0.0
 S25 0.074094 0.229449 2.559055  7.677165 33.464567 OUTLET 0.0
 S26 0.030000 0.300000 3.000000  9.000000 50.000000 OUTLET 0.0
 S27 0.031515 0.297576 2.984848  8.954545 49.431818 OUTLET 0.0
 S28 0.110942 0.173478 2.173913  6.579710 19.021739 OUTLET 0.0
 S29 0.030000 0.300000 3.000000  9.000000 50.000000 OUTLET 0.0
 S30 0.041628 0.281395 2.883721  8.651163 45.639535 OUTLET 0.0
 S31 0.046667 0.273333 2.833333  8.500000 43.750000 OUTLET 0.0
 S32 0.030000 0.300000 3.000000  9.000000 50.000000 OUTLET 0.0
 S33 0.030000 0.300000 3.000000  9.000000 50.000000 OUTLET 0.0
 S34 0.030000 0.300000 3.000000  9.000000 50.000000 OUTLET 0.0
 S35 0.030000 0.300000 3.000000  9.000000 50.000000 OUTLET 0.0
 S36 0.030000 0.300000 3.000000  9.000000 50.000000 OUTLET 0.0
 S37 0.052807 0.263509 2.771930  8.315789 41.447368 OUTLET 0.0
 S38 0.030000 0.300000 3.000000  9.000000 50.000000 OUTLET 0.0
 S39 0.030000 0.300000 3.000000  9.000000 50.000000 OUTLET 0.0
 S40 0.030000 0.300000 3.000000  9.000000 50.000000 OUTLET 0.0
 S41 0.030000 0.300000 3.000000  9.000000 50.000000 OUTLET 0.0
 S42 0.030000 0.300000 3.000000  9.000000 50.000000 OUTLET 0.0
 S44 0.030000 0.300000 3.000000  9.000000 50.000000 OUTLET 0.0
 S45 0.033226 0.294839 2.967742  8.903226 48.790323 OUTLET 0.0
 S46 0.037407 0.288148 2.925926  8.777778 47.222222 OUTLET 0.0
 S47 0.033226 0.294839 2.967742  8.903226 48.790323 OUTLET 0.0
 S48 0.064483 0.244828 2.655172  7.965517 37.068966 OUTLET 0.0
 S49 0.030000 0.300000 3.000000  9.000000 50.000000 OUTLET 0.0
 S50 0.087143 0.208571 2.428571  7.285714 28.571429 OUTLET 0.0
 S51 0.096736 0.230417 2.125000  7.097222 17.187500 OUTLET 0.0
 S52 0.030000 0.300000 3.000000  9.000000 50.000000 OUTLET 0.0
 S53 0.030000 0.300000 3.000000  9.000000 50.000000 OUTLET 0.0
 S54 0.030000 0.300000 3.000000  9.000000 50.000000 OUTLET 0.0
 S55 0.120446 0.163869 2.047619  6.309524 14.285714 OUTLET 0.0
 S56 0.083256 0.224372 2.413953  7.427907 28.023256 OUTLET 0.0
 S57 0.030000 0.300000 3.000000  9.000000 50.000000 OUTLET 0.0
 S58 0.030000 0.300000 3.000000  9.000000 50.000000 OUTLET 0.0
 S59 0.050000 0.268000 2.800000  8.400000 42.500000 OUTLET 0.0
 S60 0.030000 0.300000 3.000000  9.000000 50.000000 OUTLET 0.0
 S61 0.044467 0.279600 2.840000  8.573333 44.000000 OUTLET 0.0
 S62 0.030000 0.300000 3.000000  9.000000 50.000000 OUTLET 0.0
 S63 0.073478 0.230435 2.565217  7.695652 33.695652 OUTLET 0.0
 S64 0.030000 0.300000 3.000000  9.000000 50.000000 OUTLET 0.0
 S65 0.030000 0.300000 3.000000  9.000000 50.000000 OUTLET 0.0
 S66 0.037143 0.288571 2.928571  8.785714 47.321429 OUTLET 0.0
 S67 0.033361 0.294622 2.966387  8.899160 48.739496 OUTLET 0.0
 S68 0.035882 0.290588 2.941176  8.823529 47.794118 OUTLET 0.0
 S69 0.033077 0.295077 2.969231  8.907692 48.846154 OUTLET 0.0
 S70 0.030000 0.300000 3.000000  9.000000 50.000000 OUTLET 0.0
 S71 0.030000 0.300000 3.000000  9.000000 50.000000 OUTLET 0.0
 S72 0.030000 0.300000 3.000000  9.000000 50.000000 OUTLET 0.0
 S73 0.030000 0.300000 3.000000  9.000000 50.000000 OUTLET 0.0
 S74 0.030000 0.300000 3.000000  9.000000 50.000000 OUTLET 0.0
 S75 0.045000 0.276000 2.850000  8.550000 44.375000 OUTLET 0.0
 S76 0.116207 0.162069 2.137931  6.413793 17.672414 OUTLET 0.0
 S77 0.030000 0.300000 3.000000  9.000000 50.000000 OUTLET 0.0
 S78 0.030000 0.300000 3.000000  9.000000 50.000000 OUTLET 0.0
 S79 0.095285 0.209538 2.269022  7.078804 22.588315 OUTLET 0.0
 S80 0.105931 0.200653 2.117083  6.781190 16.890595 OUTLET 0.0
 S81 0.099953 0.190000 2.289720  6.906542 23.364486 OUTLET 0.0
 S82 0.112791 0.177738 2.115127  6.543507 16.817269 OUTLET 0.0
 S83 0.070388 0.237155 2.586207  7.793103 34.482759 OUTLET 0.0
 S84 0.069325 0.241984 2.579365  7.833333 34.226190 OUTLET 0.0
 S85 0.035000 0.292000 2.950000  8.850000 48.125000 OUTLET 0.0
 S86 0.117232 0.164107 2.107143  6.392857 16.517857 OUTLET 0.0
 S87 0.120349 0.160233 2.069767  6.302326 15.116279 OUTLET 0.0
 S88 0.091337 0.234767 2.151163  7.151163 18.895349 OUTLET 0.0
 S89 0.117509 0.180610 2.009768  6.429792 12.866300 OUTLET 0.0
 S90 0.115893 0.184643 2.017857  6.482143 13.169643 OUTLET 0.0
 S91 0.130000 0.140000 2.000000  6.000000 12.500000 OUTLET 0.0
 S92 0.120725 0.160812 2.059420  6.294203 14.728261 OUTLET 0.0
 S93 0.055000 0.260000 2.750000  8.250000 40.625000 OUTLET 0.0
 S94 0.061250 0.250000 2.687500  8.062500 38.281250 OUTLET 0.0
 S95 0.038140 0.286977 2.918605  8.755814 46.947674 OUTLET 0.0
 S96 0.056027 0.258356 2.739726  8.219178 40.239726 OUTLET 0.0
 S97 0.030000 0.300000 3.000000  9.000000 50.000000 OUTLET 0.0
 S98 0.042745 0.279608 2.872549  8.617647 45.220588 OUTLET 0.0
 S99 0.033226 0.294839 2.967742  8.903226 48.790323 OUTLET 0.0
S100 0.030000 0.300000 3.000000  9.000000 50.000000 OUTLET 0.0
S101 0.030000 0.300000 3.000000  9.000000 50.000000 OUTLET 0.0
S102 0.030000 0.300000 3.000000  9.000000 50.000000 OUTLET 0.0
S103 0.039677 0.284516 2.903226  8.709677 46.370968 OUTLET 0.0
S104 0.063074 0.247081 2.669257  8.007771 37.597141 OUTLET 0.0
S105 0.080909 0.218545 2.490909  7.472727 30.909091 OUTLET 0.0
S106 0.030000 0.300000 3.000000  9.000000 50.000000 OUTLET 0.0
S107 0.031724 0.297241 2.982759  8.948276 49.353448 OUTLET 0.0
S108 0.116812 0.166250 2.103125  6.409375 16.367188 OUTLET 0.0
S109 0.124692 0.156303 2.009479  6.180095 12.855450 OUTLET 0.0
S110 0.127870 0.147222 2.000000  6.074074 12.500000 OUTLET 0.0
S111 0.112955 0.170103 2.154639  6.518900 18.298969 OUTLET 0.0
S112 0.038108 0.287027 2.918919  8.756757 46.959459 OUTLET 0.0
S113 0.030000 0.300000 3.000000  9.000000 50.000000 OUTLET 0.0
S114 0.030000 0.300000 3.000000  9.000000 50.000000 OUTLET 0.0
S115 0.043889 0.277778 2.861111  8.583333 44.791667 OUTLET 0.0
S116 0.030000 0.300000 3.000000  9.000000 50.000000 OUTLET 0.0
S117 0.103684 0.182105 2.263158  6.789474 22.368421 OUTLET 0.0
S118 0.086349 0.209841 2.436508  7.309524 28.869048 OUTLET 0.0
S119 0.055000 0.260000 2.750000  8.250000 40.625000 OUTLET 0.0
S121 0.080000 0.220000 2.500000  7.500000 31.250000 OUTLET 0.0
S122 0.075455 0.227273 2.545455  7.636364 32.954545 OUTLET 0.0
S123 0.063333 0.246667 2.666667  8.000000 37.500000 OUTLET 0.0
S124 0.030000 0.300000 3.000000  9.000000 50.000000 OUTLET 0.0
S125 0.030000 0.300000 3.000000  9.000000 50.000000 OUTLET 0.0
S126 0.030000 0.300000 3.000000  9.000000 50.000000 OUTLET 0.0
S127 0.042500 0.280000 2.875000  8.625000 45.312500 OUTLET 0.0
S128 0.030000 0.300000 3.000000  9.000000 50.000000 OUTLET 0.0
S130 0.030000 0.300000 3.000000  9.000000 50.000000 OUTLET 0.0
S131 0.030000 0.300000 3.000000  9.000000 50.000000 OUTLET 0.0
S132 0.118235 0.158824 2.117647  6.352941 16.911765 OUTLET 0.0
S133 0.088658 0.223023 2.319209  7.285311 24.470339 OUTLET 0.0
S134 0.123023 0.151163 2.069767  6.209302 15.116279 OUTLET 0.0
S135 0.030033 0.299947 2.999666  8.998998 49.987472 OUTLET 0.0
S136 0.038333 0.286667 2.916667  8.750000 46.875000 OUTLET 0.0
S137 0.030000 0.300000 3.000000  9.000000 50.000000 OUTLET 0.0
S138 0.067500 0.240000 2.625000  7.875000 35.937500 OUTLET 0.0
S139 0.041111 0.282222 2.888889  8.666667 45.833333 OUTLET 0.0
S140 0.055000 0.260000 2.750000  8.250000 40.625000 OUTLET 0.0
S141 0.110000 0.172000 2.200000  6.600000 20.000000 OUTLET 0.0
S142 0.051429 0.265714 2.785714  8.357143 41.964286 OUTLET 0.0
S143 0.130000 0.140000 2.000000  6.000000 12.500000 OUTLET 0.0
S144 0.130000 0.140000 2.000000  6.000000 12.500000 OUTLET 0.0
S145 0.070084 0.342562 2.003519  8.082336 12.631949 OUTLET 0.0
S146 0.102787 0.197049 2.196721  6.852459 19.877049 OUTLET 0.0
S147 0.033448 0.294483 2.965517  8.896552 48.706897 OUTLET 0.0
S148 0.030000 0.300000 3.000000  9.000000 50.000000 OUTLET 0.0
S149 0.030000 0.300000 3.000000  9.000000 50.000000 OUTLET 0.0
S150 0.038000 0.287200 2.920000  8.760000 47.000000 OUTLET 0.0
S151 0.034545 0.292727 2.954545  8.863636 48.295455 OUTLET 0.0
S152 0.035000 0.292000 2.950000  8.850000 48.125000 OUTLET 0.0
S153 0.051622 0.265405 2.783784  8.351351 41.891892 OUTLET 0.0
S154 0.030000 0.300000 3.000000  9.000000 50.000000 OUTLET 0.0
S155 0.030000 0.300000 3.000000  9.000000 50.000000 OUTLET 0.0
S156 0.040204 0.283673 2.897959  8.693878 46.173469 OUTLET 0.0
S157 0.098596 0.211930 2.192982  7.000000 19.736842 OUTLET 0.0
S158 0.055628 0.387399 2.026906  8.573991 13.508969 OUTLET 0.0
S159 0.119219 0.176562 2.000000  6.375000 12.500000 OUTLET 0.0
S160 0.066765 0.321961 2.181373  8.112745 19.301471 OUTLET 0.0
S161 0.055850 0.314694 2.428571  8.374150 28.571429 OUTLET 0.0
S162 0.080690 0.233103 2.413793  7.517241 28.017241 OUTLET 0.0
S163 0.064687 0.283125 2.437500  8.062500 28.906250 OUTLET 0.0
S164 0.069724 0.343865 2.003067  8.095092 12.615031 OUTLET 0.0
S166 0.069737 0.268947 2.421053  7.894737 28.289474 OUTLET 0.0
S167 0.086522 0.209565 2.434783  7.304348 28.804348 OUTLET 0.0
S168 0.112927 0.167317 2.170732  6.512195 18.902439 OUTLET 0.0
S169 0.069744 0.289231 2.307692  7.948718 24.038462 OUTLET 0.0
S170 0.064483 0.244828 2.655172  7.965517 37.068966 OUTLET 0.0
S171 0.086553 0.259515 2.155340  7.436893 18.325243 OUTLET 0.0
S172 0.055000 0.260000 2.750000  8.250000 40.625000 OUTLET 0.0
S173 0.043636 0.278182 2.863636  8.590909 44.886364 OUTLET 0.0
S174 0.071176 0.234118 2.588235  7.764706 34.558824 OUTLET 0.0
S175 0.106778 0.179333 2.022222  6.333333 16.111111 OUTLET 0.0
S176 0.022050 0.504300 2.010000  9.750000 12.875000 OUTLET 0.0
S177 0.044344 0.395246 2.196721  8.885246 19.877049 OUTLET 0.0
S178 0.066571 0.288571 2.371429  8.028571 26.428571 OUTLET 0.0
S179 0.046364 0.423636 2.000000  8.909091 12.500000 OUTLET 0.0
S180 0.101389 0.197222 2.222222  6.888889 20.833333 OUTLET 0.0
S181 0.030000 0.300000 3.000000  9.000000 50.000000 OUTLET 0.0
S182 0.076154 0.226154 2.538462  7.615385 32.692308 OUTLET 0.0
S183 0.038590 0.450000 2.000000  9.179487 12.500000 OUTLET 0.0
S184 0.033158 0.468421 2.000000  9.368421 12.500000 OUTLET 0.0
S185 0.056014 0.390515 2.002193  8.572368 12.582237 OUTLET 0.0
S186 0.121210 0.164032 2.032258  6.290323 13.709677 OUTLET 0.0
S187 0.112353 0.168235 2.176471  6.529412 19.117647 OUTLET 0.0
S188 0.038242 0.445275 2.032967  9.175824 13.736264 OUTLET 0.0
S189 0.042644 0.436250 2.000000  9.038462 12.500000 OUTLET 0.0
S190 0.075000 0.234242 2.515152  7.666667 31.818182 OUTLET 0.0
S191 0.051739 0.265217 2.782609  8.347826 41.847826 OUTLET 0.0
S192 0.051053 0.266316 2.789474  8.368421 42.105263 OUTLET 0.0
S193 0.057308 0.383077 2.019231  8.519231 13.221154 OUTLET 0.0
S194 0.044677 0.429355 2.000000  8.967742 12.500000 OUTLET 0.0
S195 0.050839 0.391460 2.094891  8.708029 16.058394 OUTLET 0.0
S196 0.106047 0.187907 2.186047  6.744186 19.476744 OUTLET 0.0
S197 0.130000 0.140000 2.000000  6.000000 12.500000 OUTLET 0.0
S198 0.084338 0.294853 2.000000  7.588235 12.500000 OUTLET 0.0
S199 0.130000 0.140000 2.000000  6.000000 12.500000 OUTLET 0.0
S200 0.092108 0.257711 2.060241  7.289157 14.759036 OUTLET 0.0
S201 0.081667 0.227143 2.428571  7.476190 28.571429 OUTLET 0.0
S202 0.069205 0.344276 2.010601  8.109541 12.897527 OUTLET 0.0
S203 0.061579 0.249474 2.684211  8.052632 38.157895 OUTLET 0.0
S204 0.047500 0.419783 2.000000  8.869565 12.500000 OUTLET 0.0
S205 0.055568 0.282500 2.613636  8.295455 35.511364 OUTLET 0.0
S206 0.057273 0.256364 2.727273  8.181818 39.772727 OUTLET 0.0
S207 0.106951 0.191951 2.146341  6.731707 17.987805 OUTLET 0.0
S208 0.103491 0.209623 2.113208  6.867925 16.745283 OUTLET 0.0
S209 0.097542 0.195424 2.305085  6.983051 23.940678 OUTLET 0.0
S210 0.085833 0.245000 2.250000  7.416667 21.875000 OUTLET 0.0
S211 0.075476 0.256667 2.380952  7.714286 26.785714 OUTLET 0.0
S212 0.050269 0.364231 2.257692  8.650000 22.163462 OUTLET 0.0
S213 0.066125 0.329750 2.150000  8.150000 18.125000 OUTLET 0.0
S214 0.130000 0.140000 2.000000  6.000000 12.500000 OUTLET 0.0
S215 0.085354 0.273071 2.102362  7.503937 16.338583 OUTLET 0.0
S216 0.103824 0.218235 2.058824  6.882353 14.705882 OUTLET 0.0
S217 0.114107 0.187500 2.035714  6.535714 13.839286 OUTLET 0.0
S218 0.072500 0.335000 2.000000  8.000000 12.500000 OUTLET 0.0
S219 0.048289 0.417105 2.000000  8.842105 12.500000 OUTLET 0.0
S220 0.068393 0.348929 2.000000  8.142857 12.500000 OUTLET 0.0
S221 0.020000 0.513043 2.000000  9.826087 12.500000 OUTLET 0.0
S222 0.114655 0.185862 2.034483  6.517241 13.793103 OUTLET 0.0
S223 0.099737 0.242632 2.000000  7.052632 12.500000 OUTLET 0.0
S224 0.078618 0.241184 2.407895  7.592105 27.796053 OUTLET 0.0
S225 0.088281 0.264687 2.093750  7.406250 16.015625 OUTLET 0.0
S226 0.111833 0.189667 2.066667  6.600000 15.000000 OUTLET 0.0
S227 0.073095 0.293175 2.222222  7.873016 20.833333 OUTLET 0.0
S228 0.130000 0.140000 2.000000  6.000000 12.500000 OUTLET 0.0
S229 0.099068 0.241864 2.016949  7.067797 13.135593 OUTLET 0.0
S230 0.077727 0.317273 2.000000  7.818182 12.500000 OUTLET 0.0
S231 0.066552 0.355172 2.000000  8.206897 12.500000 OUTLET 0.0
S232 0.038000 0.452000 2.000000  9.200000 12.500000 OUTLET 0.0
S233 0.030000 0.300000 3.000000  9.000000 50.000000 OUTLET 0.0
S234 0.030000 0.300000 3.000000  9.000000 50.000000 OUTLET 0.0
S235 0.030000 0.300000 3.000000  9.000000 50.000000 OUTLET 0.0
S236 0.030000 0.300000 3.000000  9.000000 50.000000 OUTLET 0.0
S237 0.030000 0.300000 3.000000  9.000000 50.000000 OUTLET 0.0
S238 0.030000 0.300000 3.000000  9.000000 50.000000 OUTLET 0.0
S239 0.055000 0.260000 2.750000  8.250000 40.625000 OUTLET 0.0
S240 0.033571 0.441429 2.142857  9.285714 17.857143 OUTLET 0.0
S241 0.074000 0.229600 2.560000  7.680000 33.500000 OUTLET 0.0
S242 0.030000 0.300000 3.000000  9.000000 50.000000 OUTLET 0.0
S243 0.076972 0.266422 2.298165  7.701835 23.681193 OUTLET 0.0
S244 0.030000 0.300000 3.000000  9.000000 50.000000 OUTLET 0.0
S245 0.082069 0.259310 2.241379  7.551724 21.551724 OUTLET 0.0
S246 0.067244 0.327564 2.141026  8.115385 17.788462 OUTLET 0.0
S247 0.030000 0.300000 3.000000  9.000000 50.000000 OUTLET 0.0
S248 0.070000 0.236000 2.600000  7.800000 35.000000 OUTLET 0.0
S249 0.096667 0.193333 2.333333  7.000000 25.000000 OUTLET 0.0
S250 0.100000 0.188000 2.300000  6.900000 23.750000 OUTLET 0.0
S251 0.072913 0.322193 2.063679  7.955189 14.887972 OUTLET 0.0
S252 0.079389 0.308210 2.019136  7.751235 13.217593 OUTLET 0.0
S253 0.029048 0.478095 2.023810  9.500000 13.392857 OUTLET 0.0
S254 0.062562 0.367208 2.008333  8.341667 12.812500 OUTLET 0.0
S255 0.120541 0.155135 2.094595  6.283784 16.047297 OUTLET 0.0
S256 0.087333 0.271048 2.076190  7.447619 15.357143 OUTLET 0.0
S257 0.062640 0.365997 2.013630  8.336442 13.011119 OUTLET 0.0
S258 0.038810 0.295714 2.857143  8.761905 44.642857 OUTLET 0.0
S259 0.056316 0.257895 2.736842  8.210526 40.131579 OUTLET 0.0
S260 0.036667 0.289333 2.933333  8.800000 47.500000 OUTLET 0.0
S261 0.030000 0.300000 3.000000  9.000000 50.000000 OUTLET 0.0
S262 0.075400 0.247371 2.434286  7.691429 28.785714 OUTLET 0.0
S263 0.030000 0.300000 3.000000  9.000000 50.000000 OUTLET 0.0
S264 0.093750 0.205357 2.321429  7.107143 24.553571 OUTLET 0.0
S265 0.090446 0.206964 2.375000  7.196429 26.562500 OUTLET 0.0
S266 0.055926 0.258519 2.740741  8.222222 40.277778 OUTLET 0.0
S267 0.031408 0.471831 2.014085  9.422535 13.028169 OUTLET 0.0
S268 0.029024 0.482439 2.000000  9.512195 12.500000 OUTLET 0.0
S269 0.075000 0.296667 2.166667  7.833333 18.750000 OUTLET 0.0
S270 0.116667 0.161333 2.133333  6.400000 17.500000 OUTLET 0.0
S271 0.096667 0.193333 2.333333  7.000000 25.000000 OUTLET 0.0
S273 0.097742 0.191613 2.322581  6.967742 24.596774 OUTLET 0.0
S274 0.076429 0.225714 2.535714  7.607143 32.589286 OUTLET 0.0
S275 0.128824 0.141882 2.011765  6.035294 12.941176 OUTLET 0.0
S276 0.047258 0.411935 2.048387  8.854839 14.314516 OUTLET 0.0
S277 0.061786 0.366762 2.025518  8.360447 13.456938 OUTLET 0.0
S278 0.037130 0.445000 2.055556  9.203704 14.583333 OUTLET 0.0
S279 0.015000 0.530000 2.000000 10.000000 12.500000 OUTLET 0.0
S280 0.082128 0.260426 2.234043  7.553191 21.276596 OUTLET 0.0
S281 0.096646 0.216835 2.202532  7.063291 20.094937 OUTLET 0.0
S282 0.040652 0.435217 2.043478  9.086957 14.130435 OUTLET 0.0
S283 0.069726 0.236438 2.602740  7.808219 35.102740 OUTLET 0.0
S284 0.125000 0.148000 2.050000  6.150000 14.375000 OUTLET 0.0
S285 0.130000 0.140000 2.000000  6.000000 12.500000 OUTLET 0.0
S286 0.079203 0.301884 2.057971  7.739130 14.673913 OUTLET 0.0
S287 0.087143 0.208571 2.428571  7.285714 28.571429 OUTLET 0.0
S288 0.093889 0.197778 2.361111  7.083333 26.041667 OUTLET 0.0
S289 0.068939 0.243939 2.575758  7.848485 34.090909 OUTLET 0.0
S290 0.040000 0.284000 2.900000  8.700000 46.250000 OUTLET 0.0
S291 0.103016 0.183175 2.269841  6.809524 22.619048 OUTLET 0.0
S292 0.109895 0.205924 2.012605  6.693277 12.972689 OUTLET 0.0
S293 0.066667 0.249412 2.588235  7.921569 34.558824 OUTLET 0.0
S294 0.033846 0.293846 2.961538  8.884615 48.557692 OUTLET 0.0
S295 0.046667 0.273333 2.833333  8.500000 43.750000 OUTLET 0.0
S296 0.071463 0.233659 2.585366  7.756098 34.451220 OUTLET 0.0
S297 0.045556 0.275111 2.844444  8.533333 44.166667 OUTLET 0.0
S298 0.057273 0.256364 2.727273  8.181818 39.772727 OUTLET 0.0
S299 0.047000 0.396400 2.140000  8.820000 17.750000 OUTLET 0.0
S300 0.123611 0.161667 2.000000  6.222222 12.500000 OUTLET 0.0
S301 0.103452 0.187381 2.238095  6.809524 21.428571 OUTLET 0.0
S302 0.059412 0.252941 2.705882  8.117647 38.970588 OUTLET 0.0
S303 0.038642 0.286173 2.913580  8.740741 46.759259 OUTLET 0.0
S304 0.049000 0.283333 2.733333  8.466667 40.000000 OUTLET 0.0
S305 0.074956 0.279115 2.265487  7.787611 22.455752 OUTLET 0.0
S306 0.053333 0.262667 2.766667  8.300000 41.250000 OUTLET 0.0
S307 0.061792 0.253019 2.660377  8.056604 37.264151 OUTLET 0.0
S308 0.104762 0.200000 2.142857  6.809524 17.857143 OUTLET 0.0
S309 0.119655 0.156552 2.103448  6.310345 16.379310 OUTLET 0.0
S310 0.097812 0.204375 2.250000  7.000000 21.875000 OUTLET 0.0
S311 0.041188 0.441188 2.000000  9.089109 12.500000 OUTLET 0.0
S312 0.031905 0.401587 2.396825  9.222222 27.380952 OUTLET 0.0
S313 0.080532 0.284894 2.127660  7.659574 17.287234 OUTLET 0.0
S314 0.085935 0.212430 2.429907  7.327103 28.621495 OUTLET 0.0
S315 0.069216 0.237255 2.607843  7.823529 35.294118 OUTLET 0.0
S316 0.061487 0.370617 2.009665  8.378439 12.862454 OUTLET 0.0
S317 0.050000 0.268000 2.800000  8.400000 42.500000 OUTLET 0.0
S318 0.103333 0.182667 2.266667  6.800000 22.500000 OUTLET 0.0
S319 0.056761 0.377673 2.059748  8.518868 14.740566 OUTLET 0.0
S320 0.045964 0.413828 2.062315  8.893175 14.836795 OUTLET 0.0
S321 0.056419 0.388546 2.005517  8.556690 12.706897 OUTLET 0.0
S323 0.080485 0.219223 2.495146  7.485437 31.067961 OUTLET 0.0
S324 0.030000 0.300000 3.000000  9.000000 50.000000 OUTLET 0.0
S325 0.061607 0.256786 2.642857  8.071429 36.607143 OUTLET 0.0
S326 0.091581 0.250015 2.113178  7.282171 16.744186 OUTLET 0.0
S327 0.074545 0.303636 2.136364  7.863636 17.613636 OUTLET 0.0
S328 0.053388 0.344980 2.306122  8.518367 23.979592 OUTLET 0.0
S329 0.126356 0.149322 2.016949  6.118644 13.135593 OUTLET 0.0
S331 0.049719 0.402712 2.053283  8.766889 14.498097 OUTLET 0.0
S333 0.096296 0.249877 2.024691  7.160494 13.425926 OUTLET 0.0
S334 0.094574 0.244894 2.085106  7.191489 15.691489 OUTLET 0.0
S335 0.051818 0.399139 2.033493  8.703349 13.755981 OUTLET 0.0
S336 0.064615 0.244615 2.653846  7.961538 37.019231 OUTLET 0.0
S350 0.056596 0.257447 2.734043  8.202128 40.026596 OUTLET 0.0
S351 0.033704 0.284444 2.851852  8.555556 46.759259 OUTLET 0.0
S353 0.030000 0.300000 3.000000  9.000000 50.000000 OUTLET 0.0
S354 0.052222 0.264444 2.777778  8.333333 41.666667 OUTLET 0.0
S355 0.103387 0.182581 2.266129  6.798387 22.479839 OUTLET 0.0
S356 0.091881 0.200990 2.381188  7.143564 26.794554 OUTLET 0.0

[INFILTRATION]
;;Name Param1 Param2 Param3 Param4 Param5 InfMethod
;;-------------------------------------------------
  S1 12.0 2.0 4.0 168.0 0.0 HORTON
  S2 12.0 2.0 4.0 168.0 0.0 HORTON
  S3 12.0 2.0 4.0 168.0 0.0 HORTON
  S4 12.0 2.0 4.0 168.0 0.0 HORTON
  S5 12.0 2.0 4.0 168.0 0.0 HORTON
  S6 12.0 2.0 4.0 168.0 0.0 HORTON
  S7 12.0 2.0 4.0 168.0 0.0 HORTON
  S8 12.0 2.0 4.0 168.0 0.0 HORTON
 S10 12.0 2.0 4.0 168.0 0.0 HORTON
 S11 12.0 2.0 4.0 168.0 0.0 HORTON
 S12 12.0 2.0 4.0 168.0 0.0 HORTON
 S13 12.0 2.0 4.0 168.0 0.0 HORTON
 S14 12.0 2.0 4.0 168.0 0.0 HORTON
 S15 12.0 2.0 4.0 168.0 0.0 HORTON
 S16 12.0 2.0 4.0 168.0 0.0 HORTON
 S18 12.0 2.0 4.0 168.0 0.0 HORTON
 S19 12.0 2.0 4.0 168.0 0.0 HORTON
 S20 12.0 2.0 4.0 168.0 0.0 HORTON
 S21 12.0 2.0 4.0 168.0 0.0 HORTON
 S22 12.0 2.0 4.0 168.0 0.0 HORTON
 S23 12.0 2.0 4.0 168.0 0.0 HORTON
 S24 12.0 2.0 4.0 168.0 0.0 HORTON
 S25 12.0 2.0 4.0 168.0 0.0 HORTON
 S26 12.0 2.0 4.0 168.0 0.0 HORTON
 S27 12.0 2.0 4.0 168.0 0.0 HORTON
 S28 12.0 2.0 4.0 168.0 0.0 HORTON
 S29 12.0 2.0 4.0 168.0 0.0 HORTON
 S30 12.0 2.0 4.0 168.0 0.0 HORTON
 S31 12.0 2.0 4.0 168.0 0.0 HORTON
 S32 12.0 2.0 4.0 168.0 0.0 HORTON
 S33 12.0 2.0 4.0 168.0 0.0 HORTON
 S34 12.0 2.0 4.0 168.0 0.0 HORTON
 S35 12.0 2.0 4.0 168.0 0.0 HORTON
 S36 12.0 2.0 4.0 168.0 0.0 HORTON
 S37 12.0 2.0 4.0 168.0 0.0 HORTON
 S38 12.0 2.0 4.0 168.0 0.0 HORTON
 S39 12.0 2.0 4.0 168.0 0.0 HORTON
 S40 12.0 2.0 4.0 168.0 0.0 HORTON
 S41 12.0 2.0 4.0 168.0 0.0 HORTON
 S42 12.0 2.0 4.0 168.0 0.0 HORTON
 S44 12.0 2.0 4.0 168.0 0.0 HORTON
 S45 12.0 2.0 4.0 168.0 0.0 HORTON
 S46 12.0 2.0 4.0 168.0 0.0 HORTON
 S47 12.0 2.0 4.0 168.0 0.0 HORTON
 S48 12.0 2.0 4.0 168.0 0.0 HORTON
 S49 12.0 2.0 4.0 168.0 0.0 HORTON
 S50 12.0 2.0 4.0 168.0 0.0 HORTON
 S51 12.0 2.0 4.0 168.0 0.0 HORTON
 S52 12.0 2.0 4.0 168.0 0.0 HORTON
 S53 12.0 2.0 4.0 168.0 0.0 HORTON
 S54 12.0 2.0 4.0 168.0 0.0 HORTON
 S55 12.0 2.0 4.0 168.0 0.0 HORTON
 S56 12.0 2.0 4.0 168.0 0.0 HORTON
 S57 12.0 2.0 4.0 168.0 0.0 HORTON
 S58 12.0 2.0 4.0 168.0 0.0 HORTON
 S59 12.0 2.0 4.0 168.0 0.0 HORTON
 S60 12.0 2.0 4.0 168.0 0.0 HORTON
 S61 12.0 2.0 4.0 168.0 0.0 HORTON
 S62 12.0 2.0 4.0 168.0 0.0 HORTON
 S63 12.0 2.0 4.0 168.0 0.0 HORTON
 S64 12.0 2.0 4.0 168.0 0.0 HORTON
 S65 12.0 2.0 4.0 168.0 0.0 HORTON
 S66 12.0 2.0 4.0 168.0 0.0 HORTON
 S67 12.0 2.0 4.0 168.0 0.0 HORTON
 S68 12.0 2.0 4.0 168.0 0.0 HORTON
 S69 12.0 2.0 4.0 168.0 0.0 HORTON
 S70 12.0 2.0 4.0 168.0 0.0 HORTON
 S71 12.0 2.0 4.0 168.0 0.0 HORTON
 S72 12.0 2.0 4.0 168.0 0.0 HORTON
 S73 12.0 2.0 4.0 168.0 0.0 HORTON
 S74 12.0 2.0 4.0 168.0 0.0 HORTON
 S75 12.0 2.0 4.0 168.0 0.0 HORTON
 S76 12.0 2.0 4.0 168.0 0.0 HORTON
 S77 12.0 2.0 4.0 168.0 0.0 HORTON
 S78 12.0 2.0 4.0 168.0 0.0 HORTON
 S79 12.0 2.0 4.0 168.0 0.0 HORTON
 S80 12.0 2.0 4.0 168.0 0.0 HORTON
 S81 12.0 2.0 4.0 168.0 0.0 HORTON
 S82 12.0 2.0 4.0 168.0 0.0 HORTON
 S83 12.0 2.0 4.0 168.0 0.0 HORTON
 S84 12.0 2.0 4.0 168.0 0.0 HORTON
 S85 12.0 2.0 4.0 168.0 0.0 HORTON
 S86 12.0 2.0 4.0 168.0 0.0 HORTON
 S87 12.0 2.0 4.0 168.0 0.0 HORTON
 S88 12.0 2.0 4.0 168.0 0.0 HORTON
 S89 12.0 2.0 4.0 168.0 0.0 HORTON
 S90 12.0 2.0 4.0 168.0 0.0 HORTON
 S91 12.0 2.0 4.0 168.0 0.0 HORTON
 S92 12.0 2.0 4.0 168.0 0.0 HORTON
 S93 12.0 2.0 4.0 168.0 0.0 HORTON
 S94 12.0 2.0 4.0 168.0 0.0 HORTON
 S95 12.0 2.0 4.0 168.0 0.0 HORTON
 S96 12.0 2.0 4.0 168.0 0.0 HORTON
 S97 12.0 2.0 4.0 168.0 0.0 HORTON
 S98 12.0 2.0 4.0 168.0 0.0 HORTON
 S99 12.0 2.0 4.0 168.0 0.0 HORTON
S100 12.0 2.0 4.0 168.0 0.0 HORTON
S101 12.0 2.0 4.0 168.0 0.0 HORTON
S102 12.0 2.0 4.0 168.0 0.0 HORTON
S103 12.0 2.0 4.0 168.0 0.0 HORTON
S104 12.0 2.0 4.0 168.0 0.0 HORTON
S105 12.0 2.0 4.0 168.0 0.0 HORTON
S106 12.0 2.0 4.0 168.0 0.0 HORTON
S107 12.0 2.0 4.0 168.0 0.0 HORTON
S108 12.0 2.0 4.0 168.0 0.0 HORTON
S109 12.0 2.0 4.0 168.0 0.0 HORTON
S110 12.0 2.0 4.0 168.0 0.0 HORTON
S111 12.0 2.0 4.0 168.0 0.0 HORTON
S112 12.0 2.0 4.0 168.0 0.0 HORTON
S113 12.0 2.0 4.0 168.0 0.0 HORTON
S114 12.0 2.0 4.0 168.0 0.0 HORTON
S115 12.0 2.0 4.0 168.0 0.0 HORTON
S116 12.0 2.0 4.0 168.0 0.0 HORTON
S117 12.0 2.0 4.0 168.0 0.0 HORTON
S118 12.0 2.0 4.0 168.0 0.0 HORTON
S119 12.0 2.0 4.0 168.0 0.0 HORTON
S121 12.0 2.0 4.0 168.0 0.0 HORTON
S122 12.0 2.0 4.0 168.0 0.0 HORTON
S123 12.0 2.0 4.0 168.0 0.0 HORTON
S124 12.0 2.0 4.0 168.0 0.0 HORTON
S125 12.0 2.0 4.0 168.0 0.0 HORTON
S126 12.0 2.0 4.0 168.0 0.0 HORTON
S127 12.0 2.0 4.0 168.0 0.0 HORTON
S128 12.0 2.0 4.0 168.0 0.0 HORTON
S130 12.0 2.0 4.0 168.0 0.0 HORTON
S131 12.0 2.0 4.0 168.0 0.0 HORTON
S132 12.0 2.0 4.0 168.0 0.0 HORTON
S133 12.0 2.0 4.0 168.0 0.0 HORTON
S134 12.0 2.0 4.0 168.0 0.0 HORTON
S135 12.0 2.0 4.0 168.0 0.0 HORTON
S136 12.0 2.0 4.0 168.0 0.0 HORTON
S137 12.0 2.0 4.0 168.0 0.0 HORTON
S138 12.0 2.0 4.0 168.0 0.0 HORTON
S139 12.0 2.0 4.0 168.0 0.0 HORTON
S140 12.0 2.0 4.0 168.0 0.0 HORTON
S141 12.0 2.0 4.0 168.0 0.0 HORTON
S142 12.0 2.0 4.0 168.0 0.0 HORTON
S143 12.0 2.0 4.0 168.0 0.0 HORTON
S144 12.0 2.0 4.0 168.0 0.0 HORTON
S145 12.0 2.0 4.0 168.0 0.0 HORTON
S146 12.0 2.0 4.0 168.0 0.0 HORTON
S147 12.0 2.0 4.0 168.0 0.0 HORTON
S148 12.0 2.0 4.0 168.0 0.0 HORTON
S149 12.0 2.0 4.0 168.0 0.0 HORTON
S150 12.0 2.0 4.0 168.0 0.0 HORTON
S151 12.0 2.0 4.0 168.0 0.0 HORTON
S152 12.0 2.0 4.0 168.0 0.0 HORTON
S153 12.0 2.0 4.0 168.0 0.0 HORTON
S154 12.0 2.0 4.0 168.0 0.0 HORTON
S155 12.0 2.0 4.0 168.0 0.0 HORTON
S156 12.0 2.0 4.0 168.0 0.0 HORTON
S157 12.0 2.0 4.0 168.0 0.0 HORTON
S158 12.0 2.0 4.0 168.0 0.0 HORTON
S159 12.0 2.0 4.0 168.0 0.0 HORTON
S160 12.0 2.0 4.0 168.0 0.0 HORTON
S161 12.0 2.0 4.0 168.0 0.0 HORTON
S162 12.0 2.0 4.0 168.0 0.0 HORTON
S163 12.0 2.0 4.0 168.0 0.0 HORTON
S164 12.0 2.0 4.0 168.0 0.0 HORTON
S166 12.0 2.0 4.0 168.0 0.0 HORTON
S167 12.0 2.0 4.0 168.0 0.0 HORTON
S168 12.0 2.0 4.0 168.0 0.0 HORTON
S169 12.0 2.0 4.0 168.0 0.0 HORTON
S170 12.0 2.0 4.0 168.0 0.0 HORTON
S171 12.0 2.0 4.0 168.0 0.0 HORTON
S172 12.0 2.0 4.0 168.0 0.0 HORTON
S173 12.0 2.0 4.0 168.0 0.0 HORTON
S174 12.0 2.0 4.0 168.0 0.0 HORTON
S175 12.0 2.0 4.0 168.0 0.0 HORTON
S176 12.0 2.0 4.0 168.0 0.0 HORTON
S177 12.0 2.0 4.0 168.0 0.0 HORTON
S178 12.0 2.0 4.0 168.0 0.0 HORTON
S179 12.0 2.0 4.0 168.0 0.0 HORTON
S180 12.0 2.0 4.0 168.0 0.0 HORTON
S181 12.0 2.0 4.0 168.0 0.0 HORTON
S182 12.0 2.0 4.0 168.0 0.0 HORTON
S183 12.0 2.0 4.0 168.0 0.0 HORTON
S184 12.0 2.0 4.0 168.0 0.0 HORTON
S185 12.0 2.0 4.0 168.0 0.0 HORTON
S186 12.0 2.0 4.0 168.0 0.0 HORTON
S187 12.0 2.0 4.0 168.0 0.0 HORTON
S188 12.0 2.0 4.0 168.0 0.0 HORTON
S189 12.0 2.0 4.0 168.0 0.0 HORTON
S190 12.0 2.0 4.0 168.0 0.0 HORTON
S191 12.0 2.0 4.0 168.0 0.0 HORTON
S192 12.0 2.0 4.0 168.0 0.0 HORTON
S193 12.0 2.0 4.0 168.0 0.0 HORTON
S194 12.0 2.0 4.0 168.0 0.0 HORTON
S195 12.0 2.0 4.0 168.0 0.0 HORTON
S196 12.0 2.0 4.0 168.0 0.0 HORTON
S197 12.0 2.0 4.0 168.0 0.0 HORTON
S198 12.0 2.0 4.0 168.0 0.0 HORTON
S199 12.0 2.0 4.0 168.0 0.0 HORTON
S200 12.0 2.0 4.0 168.0 0.0 HORTON
S201 12.0 2.0 4.0 168.0 0.0 HORTON
S202 12.0 2.0 4.0 168.0 0.0 HORTON
S203 12.0 2.0 4.0 168.0 0.0 HORTON
S204 12.0 2.0 4.0 168.0 0.0 HORTON
S205 12.0 2.0 4.0 168.0 0.0 HORTON
S206 12.0 2.0 4.0 168.0 0.0 HORTON
S207 12.0 2.0 4.0 168.0 0.0 HORTON
S208 12.0 2.0 4.0 168.0 0.0 HORTON
S209 12.0 2.0 4.0 168.0 0.0 HORTON
S210 12.0 2.0 4.0 168.0 0.0 HORTON
S211 12.0 2.0 4.0 168.0 0.0 HORTON
S212 12.0 2.0 4.0 168.0 0.0 HORTON
S213 12.0 2.0 4.0 168.0 0.0 HORTON
S214 12.0 2.0 4.0 168.0 0.0 HORTON
S215 12.0 2.0 4.0 168.0 0.0 HORTON
S216 12.0 2.0 4.0 168.0 0.0 HORTON
S217 12.0 2.0 4.0 168.0 0.0 HORTON
S218 12.0 2.0 4.0 168.0 0.0 HORTON
S219 12.0 2.0 4.0 168.0 0.0 HORTON
S220 12.0 2.0 4.0 168.0 0.0 HORTON
S221 12.0 2.0 4.0 168.0 0.0 HORTON
S222 12.0 2.0 4.0 168.0 0.0 HORTON
S223 12.0 2.0 4.0 168.0 0.0 HORTON
S224 12.0 2.0 4.0 168.0 0.0 HORTON
S225 12.0 2.0 4.0 168.0 0.0 HORTON
S226 12.0 2.0 4.0 168.0 0.0 HORTON
S227 12.0 2.0 4.0 168.0 0.0 HORTON
S228 12.0 2.0 4.0 168.0 0.0 HORTON
S229 12.0 2.0 4.0 168.0 0.0 HORTON
S230 12.0 2.0 4.0 168.0 0.0 HORTON
S231 12.0 2.0 4.0 168.0 0.0 HORTON
S232 12.0 2.0 4.0 168.0 0.0 HORTON
S233 12.0 2.0 4.0 168.0 0.0 HORTON
S234 12.0 2.0 4.0 168.0 0.0 HORTON
S235 12.0 2.0 4.0 168.0 0.0 HORTON
S236 12.0 2.0 4.0 168.0 0.0 HORTON
S237 12.0 2.0 4.0 168.0 0.0 HORTON
S238 12.0 2.0 4.0 168.0 0.0 HORTON
S239 12.0 2.0 4.0 168.0 0.0 HORTON
S240 12.0 2.0 4.0 168.0 0.0 HORTON
S241 12.0 2.0 4.0 168.0 0.0 HORTON
S242 12.0 2.0 4.0 168.0 0.0 HORTON
S243 12.0 2.0 4.0 168.0 0.0 HORTON
S244 12.0 2.0 4.0 168.0 0.0 HORTON
S245 12.0 2.0 4.0 168.0 0.0 HORTON
S246 12.0 2.0 4.0 168.0 0.0 HORTON
S247 12.0 2.0 4.0 168.0 0.0 HORTON
S248 12.0 2.0 4.0 168.0 0.0 HORTON
S249 12.0 2.0 4.0 168.0 0.0 HORTON
S250 12.0 2.0 4.0 168.0 0.0 HORTON
S251 12.0 2.0 4.0 168.0 0.0 HORTON
S252 12.0 2.0 4.0 168.0 0.0 HORTON
S253 12.0 2.0 4.0 168.0 0.0 HORTON
S254 12.0 2.0 4.0 168.0 0.0 HORTON
S255 12.0 2.0 4.0 168.0 0.0 HORTON
S256 12.0 2.0 4.0 168.0 0.0 HORTON
S257 12.0 2.0 4.0 168.0 0.0 HORTON
S258 12.0 2.0 4.0 168.0 0.0 HORTON
S259 12.0 2.0 4.0 168.0 0.0 HORTON
S260 12.0 2.0 4.0 168.0 0.0 HORTON
S261 12.0 2.0 4.0 168.0 0.0 HORTON
S262 12.0 2.0 4.0 168.0 0.0 HORTON
S263 12.0 2.0 4.0 168.0 0.0 HORTON
S264 12.0 2.0 4.0 168.0 0.0 HORTON
S265 12.0 2.0 4.0 168.0 0.0 HORTON
S266 12.0 2.0 4.0 168.0 0.0 HORTON
S267 12.0 2.0 4.0 168.0 0.0 HORTON
S268 12.0 2.0 4.0 168.0 0.0 HORTON
S269 12.0 2.0 4.0 168.0 0.0 HORTON
S270 12.0 2.0 4.0 168.0 0.0 HORTON
S271 12.0 2.0 4.0 168.0 0.0 HORTON
S273 12.0 2.0 4.0 168.0 0.0 HORTON
S274 12.0 2.0 4.0 168.0 0.0 HORTON
S275 12.0 2.0 4.0 168.0 0.0 HORTON
S276 12.0 2.0 4.0 168.0 0.0 HORTON
S277 12.0 2.0 4.0 168.0 0.0 HORTON
S278 12.0 2.0 4.0 168.0 0.0 HORTON
S279 12.0 2.0 4.0 168.0 0.0 HORTON
S280 12.0 2.0 4.0 168.0 0.0 HORTON
S281 12.0 2.0 4.0 168.0 0.0 HORTON
S282 12.0 2.0 4.0 168.0 0.0 HORTON
S283 12.0 2.0 4.0 168.0 0.0 HORTON
S284 12.0 2.0 4.0 168.0 0.0 HORTON
S285 12.0 2.0 4.0 168.0 0.0 HORTON
S286 12.0 2.0 4.0 168.0 0.0 HORTON
S287 12.0 2.0 4.0 168.0 0.0 HORTON
S288 12.0 2.0 4.0 168.0 0.0 HORTON
S289 12.0 2.0 4.0 168.0 0.0 HORTON
S290 12.0 2.0 4.0 168.0 0.0 HORTON
S291 12.0 2.0 4.0 168.0 0.0 HORTON
S292 12.0 2.0 4.0 168.0 0.0 HORTON
S293 12.0 2.0 4.0 168.0 0.0 HORTON
S294 12.0 2.0 4.0 168.0 0.0 HORTON
S295 12.0 2.0 4.0 168.0 0.0 HORTON
S296 12.0 2.0 4.0 168.0 0.0 HORTON
S297 12.0 2.0 4.0 168.0 0.0 HORTON
S298 12.0 2.0 4.0 168.0 0.0 HORTON
S299 12.0 2.0 4.0 168.0 0.0 HORTON
S300 12.0 2.0 4.0 168.0 0.0 HORTON
S301 12.0 2.0 4.0 168.0 0.0 HORTON
S302 12.0 2.0 4.0 168.0 0.0 HORTON
S303 12.0 2.0 4.0 168.0 0.0 HORTON
S304 12.0 2.0 4.0 168.0 0.0 HORTON
S305 12.0 2.0 4.0 168.0 0.0 HORTON
S306 12.0 2.0 4.0 168.0 0.0 HORTON
S307 12.0 2.0 4.0 168.0 0.0 HORTON
S308 12.0 2.0 4.0 168.0 0.0 HORTON
S309 12.0 2.0 4.0 168.0 0.0 HORTON
S310 12.0 2.0 4.0 168.0 0.0 HORTON
S311 12.0 2.0 4.0 168.0 0.0 HORTON
S312 12.0 2.0 4.0 168.0 0.0 HORTON
S313 12.0 2.0 4.0 168.0 0.0 HORTON
S314 12.0 2.0 4.0 168.0 0.0 HORTON
S315 12.0 2.0 4.0 168.0 0.0 HORTON
S316 12.0 2.0 4.0 168.0 0.0 HORTON
S317 12.0 2.0 4.0 168.0 0.0 HORTON
S318 12.0 2.0 4.0 168.0 0.0 HORTON
S319 12.0 2.0 4.0 168.0 0.0 HORTON
S320 12.0 2.0 4.0 168.0 0.0 HORTON
S321 12.0 2.0 4.0 168.0 0.0 HORTON
S323 12.0 2.0 4.0 168.0 0.0 HORTON
S324 12.0 2.0 4.0 168.0 0.0 HORTON
S325 12.0 2.0 4.0 168.0 0.0 HORTON
S326 12.0 2.0 4.0 168.0 0.0 HORTON
S327 12.0 2.0 4.0 168.0 0.0 HORTON
S328 12.0 2.0 4.0 168.0 0.0 HORTON
S329 12.0 2.0 4.0 168.0 0.0 HORTON
S331 12.0 2.0 4.0 168.0 0.0 HORTON
S333 12.0 2.0 4.0 168.0 0.0 HORTON
S334 12.0 2.0 4.0 168.0 0.0 HORTON
S335 12.0 2.0 4.0 168.0 0.0 HORTON
S336 12.0 2.0 4.0 168.0 0.0 HORTON
S350 12.0 2.0 4.0 168.0 0.0 HORTON
S351 12.0 2.0 4.0 168.0 0.0 HORTON
S353 12.0 2.0 4.0 168.0 0.0 HORTON
S354 12.0 2.0 4.0 168.0 0.0 HORTON
S355 12.0 2.0 4.0 168.0 0.0 HORTON
S356 12.0 2.0 4.0 168.0 0.0 HORTON

[JUNCTIONS]
;;Name Elevation MaxDepth InitDepth SurDepth Aponded
;;--------------------------------------------------
  J4  77.618002 3.10 0.0 0.0 326614.902641
  J5  92.990997 4.00 0.0 0.0  28638.299206
  J6  96.026999 2.10 0.0 0.0   9216.769240
  J7 102.793001 0.00 0.0 0.0 115949.989695
  J8 102.824997 0.00 0.0 0.0   6734.702333
  J9  91.974998 0.00 0.0 0.0  30360.218167
 J10  91.959000 0.00 0.0 0.0  23562.879778
 J11 100.905998 0.00 0.0 0.0   2736.060634
 J12 100.983002 0.00 0.0 0.0    836.495149
 J13  92.644000 1.30 0.0 0.0   3913.464064
 J14  93.836998 0.00 0.0 0.0   1708.191495
 J15  86.066997 1.80 0.0 0.0   6372.247730
 J16  86.080997 1.91 0.0 0.0   3750.036178
 J17  96.323998 0.00 0.0 0.0   8390.628318
 J18  97.098000 0.00 0.0 0.0   4653.250089
 J19 101.246002 0.00 0.0 0.0   1307.116582
 J20 101.737999 0.00 0.0 0.0    271.046753
 J21  98.961000 2.40 0.0 0.0   2674.314058
 J22 100.062997 1.90 0.0 0.0    810.020470
 J23  94.133000 2.70 0.0 0.0   7730.222000
 J24  73.553000 5.10 0.0 0.0   9393.199218
 J25  85.632999 2.30 0.0 0.0   1903.471784
 J26  86.863997 4.10 0.0 0.0   9314.786013
 J27  92.665999 1.60 0.0 0.0   7235.009792
 J28  98.250998 2.60 0.0 0.0   5679.974953
 J29  99.809000 2.90 0.0 0.0  10365.892578
 J30 101.278998 2.10 0.0 0.0   2664.129800
 J31 101.338998 1.90 0.0 0.0   3849.226456
 J32  98.732999 2.20 0.0 0.0   1316.751010
 J33 101.422997 0.00 0.0 0.0   4829.741621
 J34 113.779999 0.00 0.0 0.0   4887.922163
 J35 114.204002 2.50 0.0 0.0    449.267615
 J36 119.232997 3.80 0.0 0.0   1259.861373
 J37 122.987999 0.00 0.0 0.0   3661.496324
 J38 120.984003 1.90 0.0 0.0  11216.382196
 J39 121.261003 1.90 0.0 0.0   1435.886052
 J40 121.197998 2.00 0.0 0.0     59.913221
 J41 123.359001 0.00 0.0 0.0   5422.244104
 J42 120.119003 2.50 0.0 0.0    336.727635
 J43 112.875003 2.30 0.0 0.0   2886.438498
 J44 115.391998 0.00 0.0 0.0   3246.964365
 J45 108.991004 2.10 0.0 0.0   5246.384701
 J46  98.414000 4.10 0.0 0.0   2670.726877
 J47 103.096004 1.80 0.0 0.0  25363.493193
 J48 105.065002 0.00 0.0 0.0   4207.004136
 J49 102.264998 2.60 0.0 0.0    341.140579
 J50 100.261002 2.00 0.0 0.0   2307.220285
 J51 105.573001 1.80 0.0 0.0   1824.799590
 J52 103.884000 2.20 0.0 0.0    964.569299
 J53 105.120003 2.00 0.0 0.0   2136.752696
 J54 100.480002 2.60 0.0 0.0   4735.052433
 J55 100.705003 1.90 0.0 0.0   2388.924226
 J56 101.208002 2.40 0.0 0.0   1734.623891
 J57 100.842003 2.50 0.0 0.0   1837.444329
 J58  98.908997 0.00 0.0 0.0   2891.898573
 J59  92.169000 2.40 0.0 0.0   3302.300129
 J60  95.618997 3.40 0.0 0.0   9179.169250
 J61  94.604999 3.80 0.0 0.0   6878.349523
 J62  95.106003 3.00 0.0 0.0   5549.708352
 J63  94.457999 3.60 0.0 0.0   4404.825696
 J64  96.251001 1.90 0.0 0.0   2659.369042
 J65 116.998001 0.00 0.0 0.0  21833.630661
 J66  98.283003 4.10 0.0 0.0   3467.842219
 J67 100.097998 2.60 0.0 0.0   5675.616777
 J68  97.031998 0.00 0.0 0.0   2111.593987
 J69  88.610004 3.30 0.0 0.0   3624.250882
 J70  91.558002 1.80 0.0 0.0   5679.729458
 J71  83.704000 5.20 0.0 0.0   3618.917416
 J72  89.212000 1.40 0.0 0.0   2925.491554
 J73  91.193002 2.40 0.0 0.0   7905.856528
 J74  86.311996 3.50 0.0 0.0   8965.940428
 J75  96.310002 2.20 0.0 0.0   3927.365891
 J76  97.188997 3.40 0.0 0.0   6552.540525
 J77  99.488002 3.30 0.0 0.0   1596.381354
 J78  99.857999 3.20 0.0 0.0   1666.894808
 J79 103.799999 1.80 0.0 0.0   5532.394087
 J80 113.060997 0.00 0.0 0.0   9379.562072
 J81 113.291003 1.30 0.0 0.0   3459.554095
 J82 111.877000 1.90 0.0 0.0   9372.654394
 J83  93.652000 0.00 0.0 0.0  18394.725745
 J84 103.256000 1.80 0.0 0.0   2906.824634
 J85 107.307999 0.00 0.0 0.0   2493.395526
 J86 109.022003 1.50 0.0 0.0   3099.966511
 J87  96.550999 1.20 0.0 0.0   2116.519825
 J88 101.149997 2.30 0.0 0.0   1993.777832
 J89 109.331000 1.10 0.0 0.0   2556.056731
 J90  63.317998 1.20 0.0 0.0  13604.615749
 J91  44.498000 1.30 0.0 0.0   3968.093049
 J92  31.257999 1.30 0.0 0.0   2320.462739
 J93  30.050001 1.90 0.0 0.0   2549.264546
 J94  29.143001 2.80 0.0 0.0   2285.169887
 J95  30.257000 2.00 0.0 0.0   7561.285408
 J96  40.885000 2.90 0.0 0.0   1827.055143
 J97  93.308002 0.80 0.0 0.0   2579.990179
 J98  62.388998 1.10 0.0 0.0   2528.036372
 J99  44.612001 1.40 0.0 0.0   2136.130621
J100  43.768002 0.00 0.0 0.0   1788.956926
J101  42.305000 0.00 0.0 0.0   1925.979620
J102  43.022999 0.00 0.0 0.0   2793.516785
J103  54.289001 0.00 0.0 0.0   6835.507936
J104 100.317001 0.00 0.0 0.0    253.709040
J105  63.410004 4.00 0.0 0.0  20117.517171
J106  35.166000 0.00 0.0 0.0   6856.895415
J107  31.371000 0.00 0.0 0.0   3278.474599
J108  31.344000 0.00 0.0 0.0   3014.661555
J109  32.831001 0.00 0.0 0.0  10739.097740
J110  29.825000 1.40 0.0 0.0   2707.323488
J111  31.471001 0.00 0.0 0.0   1036.277360
J112  27.986000 3.00 0.0 0.0   2704.487888
J113  29.256000 1.40 0.0 0.0   3311.488066
J114  29.562999 1.40 0.0 0.0   1372.170435
J115  29.902999 1.30 0.0 0.0   1884.853991
J116  27.269001 3.40 0.0 0.0   3047.223498
J117  30.011000 1.00 0.0 0.0   2891.308832
J118  29.818999 1.20 0.0 0.0   5624.117575
J119  29.637999 1.20 0.0 0.0   1340.282842
J120  29.511999 1.10 0.0 0.0   2445.750936
J121  29.685999 1.60 0.0 0.0   4950.775363
J122  30.500999 0.00 0.0 0.0    351.368116
J123  26.764999 3.00 0.0 0.0   2030.743518
J124  28.149999 1.90 0.0 0.0   2748.728527
J125  29.796001 2.30 0.0 0.0   1615.919651
J126  31.304001 0.00 0.0 0.0   4501.574608
J127  29.973000 1.10 0.0 0.0    390.952684
J128  30.145000 1.00 0.0 0.0   3257.696953
J129  20.056999 0.00 0.0 0.0   5360.221276
J130  18.543999 2.10 0.0 0.0   1816.640343
J131  30.278001 1.70 0.0 0.0  12965.510146
J132  19.588000 1.60 0.0 0.0  19109.614014
J133  31.337000 1.60 0.0 0.0   1899.577969
J134  29.932000 0.80 0.0 0.0   5381.244772
J135  29.823000 1.40 0.0 0.0   1143.251682
J136  29.669999 1.30 0.0 0.0   1998.502211
J137  28.470001 1.80 0.0 0.0     65.413084
J138  28.375000 2.10 0.0 0.0  31796.292100
J139  29.314999 1.20 0.0 0.0   7609.488735
J140  30.639999 0.00 0.0 0.0   9775.866728
J141  29.916999 0.90 0.0 0.0   1656.061159
J142  28.109000 3.60 0.0 0.0   1747.957759
J143  28.014000 3.50 0.0 0.0    256.372944
J144  29.288000 2.00 0.0 0.0    792.742123
J145  28.649000 2.50 0.0 0.0    881.125045
J146  29.321999 1.70 0.0 0.0    994.735289
J147  29.151000 2.40 0.0 0.0    527.443407
J148  30.191000 1.10 0.0 0.0    461.870457
J149  29.588001 1.90 0.0 0.0    256.730381
J150  28.970000 2.20 0.0 0.0    349.989128
J151  30.729000 0.00 0.0 0.0    105.665161
J152  29.311000 2.20 0.0 0.0    566.902717
J153  30.311000 1.40 0.0 0.0    897.653115
J154  29.297000 2.20 0.0 0.0    646.923289
J155  30.510001 1.80 0.0 0.0    476.055957
J156  30.148000 1.80 0.0 0.0   2860.742334
J157  30.247999 1.50 0.0 0.0   1804.076145
J158  32.073000 1.40 0.0 0.0   1184.843233
J159  30.964999 1.60 0.0 0.0    287.577501
J160  30.381001 1.70 0.0 0.0    781.124268
J161  29.835000 2.20 0.0 0.0    367.833464
J162  29.143001 2.30 0.0 0.0    354.268823
J163  28.628999 2.40 0.0 0.0    850.601618
J164  30.902000 0.00 0.0 0.0    951.109991
J165  29.479000 1.90 0.0 0.0    650.875290
J166  31.077999 0.00 0.0 0.0    468.261079
J167  30.740999 0.00 0.0 0.0   1361.268687
J168  27.930000 2.40 0.0 0.0    789.738198
J169  28.534000 2.00 0.0 0.0   1131.597545
J170  27.175000 3.10 0.0 0.0    392.538008
J171  30.141001 0.00 0.0 0.0   3113.681154
J172  29.378001 1.10 0.0 0.0  11205.962475
J173  27.783000 2.20 0.0 0.0   3891.551220
J174  28.675999 2.10 0.0 0.0    763.825966
J175  28.582001 2.00 0.0 0.0    519.682288
J176  28.839999 1.80 0.0 0.0    846.626444
J177  29.893000 0.00 0.0 0.0   1769.617719
J178  30.591999 0.00 0.0 0.0    916.878414
J179  28.330000 2.10 0.0 0.0   1036.826785
J180  28.534000 1.90 0.0 0.0    209.984388
J181  31.295000 0.00 0.0 0.0  38014.541191
J182  30.798000 0.00 0.0 0.0   3898.367570
J183  28.580001 2.20 0.0 0.0    416.639553
J184  30.879999 0.00 0.0 0.0   6268.928228
J185  29.114999 2.40 0.0 0.0   4961.834578
J186  32.799999 0.00 0.0 0.0   7404.589706
J187  32.781001 2.60 0.0 0.0  19494.937657
J188  35.338001 0.00 0.0 0.0   2446.510993
J189  32.521999 2.80 0.0 0.0   2351.110458
J190  27.573999 2.50 0.0 0.0   1152.317436
J191  29.600000 0.00 0.0 0.0  62142.368801
J192  27.595000 1.60 0.0 0.0   2455.429088
J193  28.044000 1.90 0.0 0.0   3543.169308
J194  28.471999 1.30 0.0 0.0   1530.975353
J195  28.528000 0.90 0.0 0.0   3543.169308
J196  27.675999 1.60 0.0 0.0   1530.975353
J197  28.125999 1.00 0.0 0.0  11554.316605
J198  28.398000 2.20 0.0 0.0  11554.316605
J199  27.678999 1.60 0.0 0.0    520.967223
J200  29.140999 1.10 0.0 0.0   1075.846923
J201  28.226000 1.50 0.0 0.0   1070.428201
J202  28.788000 2.00 0.0 0.0   1322.974667
J203  27.872000 2.50 0.0 0.0   7361.094830
J204  29.741000 2.30 0.0 0.0   2047.130360
J205  30.221999 2.10 0.0 0.0  50089.490045
J206  27.449999 2.60 0.0 0.0   3314.847019
J207  27.560000 2.60 0.0 0.0   2239.377148
J208  28.388001 1.60 0.0 0.0   9428.367848
J209  28.023524 1.70 0.0 0.0  61958.734084
J210  28.571000 1.70 0.0 0.0   8275.237875
J211  28.740001 1.30 0.0 0.0   3314.847019
J212  28.680000 1.30 0.0 0.0   1228.872685
J213  28.580000 1.40 0.0 0.0    540.797649
J214  28.790000 1.70 0.0 0.0  11601.178006
J215  26.576999 2.90 0.0 0.0  33637.374376
J216  26.050000 3.80 0.0 0.0  46695.289103
J217  25.852000 3.60 0.0 0.0   7832.124225
J218  27.912000 1.30 0.0 0.0  25456.873450
J219  28.021000 1.60 0.0 0.0  11500.446404
J220  27.115000 2.50 0.0 0.0  74046.787485
J221  27.036000 2.70 0.0 0.0    450.991544
J222  27.794999 1.30 0.0 0.0   4914.819530
J223  27.687500 3.00 0.0 0.0  25676.273701
J224  37.366999 1.10 0.0 0.0   2094.423705
J225  37.359999 1.10 0.0 0.0   2889.880480
J226  36.557000 1.20 0.0 0.0   5217.918204
J227  36.157999 1.40 0.0 0.0    776.139442
J228  47.296001 0.00 0.0 0.0  58797.802311
J229  32.425999 1.20 0.0 0.0   1465.365858
J230  32.160001 0.90 0.0 0.0    373.834699
J231  32.611000 0.00 0.0 0.0    455.182301
J232  31.852000 0.80 0.0 0.0    361.775842
J233  31.441999 1.40 0.0 0.0    670.642184
J234  31.680999 1.30 0.0 0.0    235.500233
J235  32.733002 0.00 0.0 0.0   2233.159998
J236  32.870998 0.00 0.0 0.0  82068.000557
J237  31.799001 0.90 0.0 0.0    334.449549
J238  32.834999 0.00 0.0 0.0   2165.347449
J239  31.817001 1.00 0.0 0.0    231.305408
J240  31.729000 1.00 0.0 0.0    753.189390
J241  32.221001 1.00 0.0 0.0 127650.403265
J242  31.658001 1.00 0.0 0.0   2353.780983
J243  31.069000 0.90 0.0 0.0   4990.657685
J244  30.772000 1.20 0.0 0.0   1482.092878
J245  31.254000 1.10 0.0 0.0   7214.458557
J246  32.203999 0.00 0.0 0.0   5781.283024
J247  30.120999 1.70 0.0 0.0   2605.462679
J248  31.421000 0.00 0.0 0.0   1411.813499

[OUTFALLS]
;;Name Elevation Type FixedStage Curve_TS FlapGate RouteTo
;;--------------------------------------------------------
 out1  22.0 FREE   NO 
 out2 100.0 FREE   NO 
 out3  30.0 FREE   NO 
 out4  25.0 FREE   NO 
 out5  21.0 FREE   NO 
 out6   0.0 FREE   NO 
 out7  25.0 FREE   NO 
 out8  90.0 FREE   NO 
 out9  80.0 FREE   NO 
out10  25.0 FREE   NO 
out11  29.0 FREE   NO 
out12  29.0 FREE   NO 
out13  29.0 FREE   NO 
out14  30.0 FREE   NO 
out15  28.0 FREE   NO 
out16  28.0 FREE   NO 
out17   0.0 FREE   NO 
out18  25.0 FREE   NO 
out19  32.0 FREE   NO 
out20   0.0 FREE   NO 
out21  25.0 FREE   NO 
out22  26.0 FREE   NO 
out23  29.0 FREE   NO 
out24  27.0 FREE   NO 
out25  29.0 FREE   NO 
out26  28.0 FREE   NO 
out27  90.0 FREE   NO 
out28  25.0 FREE   NO 
out29  26.0 FREE   NO 
out30   0.0 FREE   NO 
out31   0.0 FREE   NO 
out32  32.0 FREE   NO 
out33   0.0 FREE   NO 
out34  26.0 FREE   NO 
out35  70.0 FREE   NO 
out36  77.0 FREE   NO 
out37  28.0 FREE   NO 
out38  25.0 FREE   NO 
out39  23.0 FREE   NO 
out40  84.0 FREE   NO 
out41  90.0 FREE   NO 
out42  80.0 FREE   NO 
out43  22.0 FREE   NO 
out45  16.0 FREE   NO 
 vir1  20.0 FREE  YES 
 vir2  20.0 FREE  YES 
 vir3  20.0 FREE  YES 
 vir4  25.0 FREE  YES 
 vir5  90.0 FREE  YES 
 vir6  90.0 FREE  YES 

[CONDUITS]
;;Name FromNode ToNode Length Roughness InOffset OutOffset InitFlow MaxFlow
;;-------------------------------------------------------------------------
  C4   J4 out36 0.8859554593790441 0.015 0.0 0.0 0.0 0.0
  C5   J5    J4  748.0076200866422 0.015 0.0 0.0 0.0 0.0
  C6   J6    J5 307.01041670423587 0.015 0.0 0.0 0.0 0.0
  C7   J7    J9  701.2859169440236 0.015 0.0 0.0 0.0 0.0
  C8  J11    J9  983.1998322398339 0.015 0.0 0.0 0.0 0.0
  C9  J33   J10  947.0112521492855 0.015 0.0 0.0 0.0 0.0
 C10   J8   J10  730.8950744162455 0.015 0.0 0.0 0.0 0.0
 C11  J64   J63  98.81487903594238 0.015 0.0 0.0 0.0 0.0
 C12  J62   J63  33.10109126960345 0.015 0.0 0.0 0.0 0.0
 C13  J61   J63 184.35686734516148 0.015 0.0 0.0 0.0 0.0
 C14  J61 out41  40.27551373857146 0.015 0.0 0.0 0.0 0.0
 C15  J60  out8  163.8086188779529 0.015 0.0 0.0 0.0 0.0
 C16  J46   J60  51.30603670422366 0.015 0.0 0.0 0.0 0.0
 C17  J65   J46  712.1873489589249 0.015 0.0 0.0 0.0 0.0
 C18  J46   J66  328.7613691946317 0.015 0.0 0.0 0.0 0.0
 C19  J67   J66 19.033420319880545 0.015 0.0 0.0 0.0 0.0
 C20  J49   J50 278.43552694121036 0.015 0.0 0.0 0.0 0.0
 C21  J47   J49  242.6597934668481 0.015 0.0 0.0 0.0 0.0
 C22  J48   J47 30.906415593259183 0.015 0.0 0.0 0.0 0.0
 C23  J45   J47 333.68082222666544 0.015 0.0 0.0 0.0 0.0
 C24  J45   J46  277.8308045053984 0.015 0.0 0.0 0.0 0.0
 C25  J43   J45  86.52485613677132 0.015 0.0 0.0 0.0 0.0
 C26  J44   J43 30.395170401587965 0.015 0.0 0.0 0.0 0.0
 C27  J42   J43 209.58295637206038 0.015 0.0 0.0 0.0 0.0
 C28  J41   J40 29.612588121045164 0.015 0.0 0.0 0.0 0.0
 C29  J40   J38  92.94873520263698 0.015 0.0 0.0 0.0 0.0
 C30  J39   J38 28.508758195655204 0.015 0.0 0.0 0.0 0.0
 C31  J38   J36 221.35107076608995 0.015 0.0 0.0 0.0 0.0
 C32  J37   J36  23.20712577006318 0.015 0.0 0.0 0.0 0.0
 C33  J36   J35 119.66782432355387 0.015 0.0 0.0 0.0 0.0
 C34  J35   J34 50.835038249453596 0.015 0.0 0.0 0.0 0.0
 C35  J52   J49  98.91963352330865 0.015 0.0 0.0 0.0 0.0
 C36  J51   J52  139.8878877531046 0.015 0.0 0.0 0.0 0.0
 C37  J52  out2 220.23666040863452 0.015 0.0 0.0 0.0 0.0
 C38  J53   J54  185.9302277315515 0.013 0.0 0.0 0.0 0.0
 C39  J54   J73 342.15396542395155 0.015 0.0 0.0 0.0 0.0
 C40  J73 out27 15.042534671545889 0.013 0.0 0.0 0.0 0.0
 C41  J73   J74 150.26093857959188 0.013 0.0 0.0 0.0 0.0
 C42  J74 out40  15.40375396800287 0.013 0.0 0.0 0.0 0.0
 C43  J70   J69 324.03800192947256 0.015 0.0 0.0 0.0 0.0
 C44  J69   J71  53.82553547277493 0.015 0.0 0.0 0.0 0.0
 C45  J71 out42  41.80379060077555 0.015 0.0 0.0 0.0 0.0
 C46  J72   J69  66.39591781032027 0.015 0.0 0.0 0.0 0.0
 C47  J68   J69  355.6134541854418 0.015 0.0 0.0 0.0 0.0
 C48  J58   J59 152.92558871530534 0.015 0.0 0.0 0.0 0.0
 C49  J55   J58 140.25519087123348 0.015 0.0 0.0 0.0 0.0
 C50  J56   J55 200.83618029851368 0.015 0.0 0.0 0.0 0.0
 C51  J57   J50 210.24963156425733 0.015 0.0 0.0 0.0 0.0
 C52  J12   J14  493.0637327484764 0.015 0.0 0.0 0.0 0.0
 C53  J14   J16  500.2991336678627 0.015 0.0 0.0 0.0 0.0
 C54  J11   J13  482.4277471491021 0.015 0.0 0.0 0.0 0.0
 C55  J31   J32  296.0262170318995 0.013 0.0 0.0 0.0 0.0
 C56  J31   J30  36.33567337643159 0.013 0.0 0.0 0.0 0.0
 C57  J30   J29 108.65615889990832 0.013 0.0 0.0 0.0 0.0
 C58  J29   J28  78.95689685966323 0.013 0.0 0.0 0.0 0.0
 C59  J28   J26 419.63579967861943 0.013 0.0 0.0 0.0 0.0
 C60  J27   J26  554.3918081628282 0.015 0.0 0.0 0.0 0.0
 C61  J26  out9 500.94140047106816 0.015 0.0 0.0 0.0 0.0
 C62  J24 out35   105.325622600845 0.015 0.0 0.0 0.0 0.0
 C63  J25   J24  586.4605558685662 0.015 0.0 0.0 0.0 0.0
 C64  J23   J24  527.3570645718038 0.015 0.0 0.0 0.0 0.0
 C65  J21   J23  423.8389540543186 0.015 0.0 0.0 0.0 0.0
 C66  J13   J15 511.92555166381464 0.015 0.0 0.0 0.0 0.0
 C67  J17   J15  398.4395772456333 0.015 0.0 0.0 0.0 0.0
 C68  J19   J17  220.7825809832687 0.015 0.0 0.0 0.0 0.0
 C69  J18   J16  425.0616021116403 0.015 0.0 0.0 0.0 0.0
 C70  J20   J18 214.92574867988867 0.015 0.0 0.0 0.0 0.0
 C71  J22   J77 119.70697908954803 0.015 0.0 0.0 0.0 0.0
 C72  J78   J77 30.902976388892323 0.013 0.0 0.0 0.0 0.0
 C73  J77   J76 216.60432556326904 0.015 0.0 0.0 0.0 0.0
 C74  J79   J76 156.04825610500532 0.015 0.0 0.0 0.0 0.0
 C75  J80   J79 234.85350429476998 0.015 0.0 0.0 0.0 0.0
 C76  J81   J80 340.60052985402524 0.015 0.0 0.0 0.0 0.0
 C77  J86   J79 241.90816719278212 0.015 0.0 0.0 0.0 0.0
 C78  J76   J75  87.61197830988846 0.013 0.0 0.0 0.0 0.0
 C79  J75   J74  300.4426548271311 0.015 0.0 0.0 0.0 0.0
 C80  J89   J88 229.25527732924024 0.015 0.0 0.0 0.0 0.0
 C81  J88   J87 186.10263224431648 0.015 0.0 0.0 0.0 0.0
 C82  J87   J90  576.0026454008821 0.015 0.0 0.0 0.0 0.0
 C83  J85   J84  66.88891054960318 0.015 0.0 0.0 0.0 0.0
 C84  J82   J83 318.58824430601913 0.015 0.0 0.0 0.0 0.0
 C85  J97   J98  547.5824641460963 0.015 0.0 0.0 0.0 0.0
 C86 J104  J105  520.7087375699738 0.013 0.0 0.0 0.0 0.0
 C87 J105  J101 454.59708550410124 0.013 0.0 0.0 0.0 0.0
 C88  J98   J99 358.41253971753645 0.015 0.0 0.0 0.0 0.0
 C89  J90   J91  391.9038907354408 0.015 0.0 0.0 0.0 0.0
 C90 J103  J102 291.09462234521135 0.015 0.0 0.0 0.0 0.0
 C91 J102  J101 234.50269332256013 0.015 0.0 0.0 0.0 0.0
 C92 J100  J102 119.34649263097819 0.015 0.0 0.0 0.0 0.0
 C93  J99   J96   76.0565042713212 0.015 0.0 0.0 0.0 0.0
 C94  J99  J100 149.20191174996125 0.015 0.0 0.0 0.0 0.0
 C95  J99  J111  883.2907019880478  0.01 0.0 0.0 0.0 0.0
 C96  J96   J95 353.63227614705806  0.01 0.0 0.0 0.0 0.0
 C97  J91   J92 396.66144501457404 0.015 0.0 0.0 0.0 0.0
 C98 J225  J226 209.97541755138323 0.015 0.0 0.0 0.0 0.0
 C99 J224  J227  271.8733814297754 0.015 0.0 0.0 0.0 0.0
C100 J227 out19  136.5003571405676 0.015 0.0 0.0 0.0 0.0
C101 J226 out32 179.87509741798786 0.015 0.0 0.0 0.0 0.0
C102 J228  J227 184.68449270110915 0.015 0.0 0.0 0.0 0.0
C103  J95   J94  595.8122686683164  0.01 0.0 0.0 0.0 0.0
C104  J94 out18   41.3052844104619 0.015 0.0 0.0 0.0 0.0
C105  J93   J94 31.872258812660174 0.015 0.0 0.0 0.0 0.0
C106  J92   J93  599.8513466137362 0.015 0.0 0.0 0.0 0.0
C107 J125 out10  45.36821589964899 0.015 0.0 0.0 0.0 0.0
C108 J129 out37  8.000084236154136 0.015 0.0 0.0 0.0 0.0
C109 J129  J130 154.73120595443933 0.015 0.0 0.0 0.0 0.0
C110 J131  J130 122.17759673333799 0.015 0.0 0.0 0.0 0.0
C111 J131 out26 12.845413142586967 0.015 0.0 0.0 0.0 0.0
C112 J132  J130  348.1890029780658 0.015 0.0 0.0 0.0 0.0
C113 J133  J132 15.126566091844687 0.013 0.0 0.0 0.0 0.0
C114 J236  J235  86.55919041182702 0.015 0.0 0.0 0.0 0.0
C115 J235  J232  51.46644180644419 0.015 0.0 0.0 0.0 0.0
C116 J234 out12  33.77725119131752 0.013 0.0 0.0 0.0 0.0
C117 J232 out11  32.94388398194908 0.013 0.0 0.0 0.0 0.0
C118 J232  J233  68.33484069519238 0.013 0.0 0.0 0.0 0.0
C119 J233 out13  26.76671549468318 0.015 0.0 0.0 0.0 0.0
C120 J229 out15 29.552918497816005 0.015 0.0 0.0 0.0 0.0
C121 J229  J230  87.96192448084638 0.015 0.0 0.0 0.0 0.0
C122 J230 out14 22.236316377028203 0.015 0.0 0.0 0.0 0.0
C123 J230  J239 25.545047736507264 0.015 0.0 0.0 0.0 0.0
C124 J238  J239    49.686450290949 0.015 0.0 0.0 0.0 0.0
C125 J239  J237 61.365603053419406 0.015 0.0 0.0 0.0 0.0
C126 J231  J230  60.91465050059842 0.015 0.0 0.0 0.0 0.0
C127 J231  J237 26.691147067149615 0.015 0.0 0.0 0.0 0.0
C128 J232  J237 40.222080612564525 0.015 0.0 0.0 0.0 0.0
C129 J240 out16  59.10930572777552 0.015 0.0 0.0 0.0 0.0
C130 J241  J240  80.93436629864186 0.015 0.0 0.0 0.0 0.0
C131 J241  out3  27.75268414780549 0.015 0.0 0.0 0.0 0.0
C132 J242  J243  309.0286309565991 0.013 0.0 0.0 0.0 0.0
C133 J243 out23  20.01350809753265 0.013 0.0 0.0 0.0 0.0
C134 J244 out24  32.71748910777706 0.013 0.0 0.0 0.0 0.0
C135 J245  J244  227.6361123814845 0.013 0.0 0.0 0.0 0.0
C136 J246 out25  32.40383135923747 0.015 0.0 0.0 0.0 0.0
C137 J126  J125 206.46255155172895 0.015 0.0 0.0 0.0 0.0
C138 J128  J127  44.90231742497276 0.015 0.0 0.0 0.0 0.0
C139 J247  J127  167.1734609796985 0.015 0.0 0.0 0.0 0.0
C140 J247  J125  36.89089102550148 0.015 0.0 0.0 0.0 0.0
C141 J111  J110   221.265659774739  0.01 0.0 0.0 0.0 0.0
C142 J107  J110 189.68744777582742  0.01 0.0 0.0 0.0 0.0
C143 J248  J115  224.2585678924269  0.01 0.0 0.0 0.0 0.0
C144 J111  J248 13.196921076628719 0.015 0.0 0.0 0.0 0.0
C145 J248  J114 118.31140959014506  0.01 0.0 0.0 0.0 0.0
C146 J114  J113  171.1834547195905 0.015 0.0 0.0 0.0 0.0
C147 J113  J112  214.6591244626346 0.015 0.0 0.0 0.0 0.0
C148 J107  J112 126.94904435707002 0.013 0.0 0.0 0.0 0.0
C149 J141  J112 138.89768347810363 0.015 0.0 0.0 0.0 0.0
C150 J107  J108  204.4740235082629 0.013 0.0 0.0 0.0 0.0
C151 J109  J108 308.07619162651406 0.015 0.0 0.0 0.0 0.0
C152 J106  J108  240.7348789757255 0.015 0.0 0.0 0.0 0.0
C153 J101  J106  290.4463844284948 0.013 0.0 0.0 0.0 0.0
C154 J106  J189 225.98665720203005 0.015 0.0 0.0 0.0 0.0
C155 J188  J187 190.80861745769144 0.015 0.0 0.0 0.0 0.0
C156 J186  J187  303.4971030637303 0.015 0.0 0.0 0.0 0.0
C157 J189  J159  277.3901549300761 0.015 0.0 0.0 0.0 0.0
C158 J159  J155  35.35086642368276 0.015 0.0 0.0 0.0 0.0
C159 J158  J157  103.9055916987391 0.013 0.0 0.0 0.0 0.0
C160 J157  J156  73.48996379323397 0.013 0.0 0.0 0.0 0.0
C161 J156  J154 125.44334596575108 0.013 0.0 0.0 0.0 0.0
C162 J155  J154  98.21865934871181 0.015 0.0 0.0 0.0 0.0
C163 J155  J160 124.86837611005693 0.013 0.0 0.0 0.0 0.0
C164 J186  J185  291.3067325263022  0.01 0.0 0.0 0.0 0.0
C165 J162  J185  19.05191778122242 0.015 0.0 0.0 0.0 0.0
C166 J161  J162  140.8386568286304 0.015 0.0 0.0 0.0 0.0
C167 J160  J161 59.259991723072474 0.015 0.0 0.0 0.0 0.0
C168 J160  J152  50.53892261602358 0.015 0.0 0.0 0.0 0.0
C169 J153  J152  79.30787546478385 0.015 0.0 0.0 0.0 0.0
C170 J152  J150  95.22371496225894 0.015 0.0 0.0 0.0 0.0
C171 J147  J150  72.28625854289477 0.015 0.0 0.0 0.0 0.0
C172 J144  J147  80.52857648135637 0.015 0.0 0.0 0.0 0.0
C173 J148  J147  49.35197973771737 0.015 0.0 0.0 0.0 0.0
C174 J148  J149  60.65901379545613 0.015 0.0 0.0 0.0 0.0
C175 J144  J145  97.78398574681046 0.015 0.0 0.0 0.0 0.0
C176 J146  J145 124.05559659100159 0.015 0.0 0.0 0.0 0.0
C177 J185  J183  169.6094967270973 0.015 0.0 0.0 0.0 0.0
C178 J184  J183  40.52007888455875 0.013 0.0 0.0 0.0 0.0
C179 J183  J180 114.83809180756683  0.01 0.0 0.0 0.0 0.0
C180 J182  J180  29.80255279503828 0.015 0.0 0.0 0.0 0.0
C181 J175  J180 17.938540638706346 0.015 0.0 0.0 0.0 0.0
C182 J174  J175 113.27916751748405  0.01 0.0 0.0 0.0 0.0
C183 J162  J174 167.64195002797325 0.015 0.0 0.0 0.0 0.0
C184 J162  J163  90.65528262814448 0.015 0.0 0.0 0.0 0.0
C185 J165  J163   88.1891248005963 0.015 0.0 0.0 0.0 0.0
C186 J164  J163 45.275667519966504 0.015 0.0 0.0 0.0 0.0
C187 J166  J164  89.41448385099955 0.015 0.0 0.0 0.0 0.0
C188 J178  J174  91.00108454051141 0.015 0.0 0.0 0.0 0.0
C189 J177  J175  96.86255528437098 0.015 0.0 0.0 0.0 0.0
C190 J178  J179  44.19648425485078 0.015 0.0 0.0 0.0 0.0
C191 J179  J190  99.68931205600617 0.015 0.0 0.0 0.0 0.0
C192 J191  J190 141.41678961399947 0.015 0.0 0.0 0.0 0.0
C193 J181  J180 103.40789955032808 0.015 0.0 0.0 0.0 0.0
C194 J176  J175  65.53205242226213  0.01 0.0 0.0 0.0 0.0
C195 J167  J150 109.95241791621851 0.015 0.0 0.0 0.0 0.0
C196 J145  J143  53.47716752883936 0.015 0.0 0.0 0.0 0.0
C197 J142  J143   126.303232509843 0.015 0.0 0.0 0.0 0.0
C198 J151  J143 150.59259758030117 0.015 0.0 0.0 0.0 0.0
C199 J151  J170 167.71525310321377 0.015 0.0 0.0 0.0 0.0
C200 J171  J170 12.805295126858063 0.015 0.0 0.0 0.0 0.0
C201 J168  J170  46.16765906462055 0.015 0.0 0.0 0.0 0.0
C202 J169  J168 21.206985701455594 0.015 0.0 0.0 0.0 0.0
C203 J164  J168 150.97790085574536 0.015 0.0 0.0 0.0 0.0
C204 J173 out28 31.967883029625646 0.015 0.0 0.0 0.0 0.0
C205 J171 out29 134.96665277963496 0.013 0.0 0.0 0.0 0.0
C206 J171  J172 246.27511521355254 0.013 0.0 0.0 0.0 0.0
C207 J137  J138 294.18459356574965 0.015 0.0 0.0 0.0 0.0
C208 J136  J137  129.8164043565669 0.015 0.0 0.0 0.0 0.0
C209 J135  J136 120.93536899890354 0.015 0.0 0.0 0.0 0.0
C210 J136  J139  317.0017224280015 0.015 0.0 0.0 0.0 0.0
C211 J140  J139  436.0109986124885 0.015 0.0 0.0 0.0 0.0
C212 J134  J116   289.436118145487  0.01 0.0 0.0 0.0 0.0
C213 J122  J135  82.40230188595265 0.015 0.0 0.0 0.0 0.0
C214 J120  J116 156.21872943024488 0.013 0.0 0.0 0.0 0.0
C215 J119  J120 197.49558605344106 0.013 0.0 0.0 0.0 0.0
C216 J117  J119 205.94080762813272 0.013 0.0 0.0 0.0 0.0
C217 J117  J118   273.963517859551 0.015 0.0 0.0 0.0 0.0
C218 J117  J114 194.72201235915028  0.01 0.0 0.0 0.0 0.0
C219 J122  J121 375.15400140530863  0.01 0.0 0.0 0.0 0.0
C220 J122  J123 170.90621501439733 0.015 0.0 0.0 0.0 0.0
C221 J124  J123 120.18696176867006 0.015 0.0 0.0 0.0 0.0
C222 J124 out34 25.932018160935552 0.015 0.0 0.0 0.0 0.0
C223 J129 out45   329.936584913505 0.015 0.0 0.0 0.0 0.0
C224 J192 out38 18.324672622386014 0.015 0.0 0.0 0.0 0.0
C225 J199  J192  103.0889166507118 0.015 0.0 0.0 0.0 0.0
C226 J194  J193 109.22042268564418 0.013 0.0 0.0 0.0 0.0
C227 J198  J193 164.16721290429734 0.013 0.0 0.0 0.0 0.0
C228 J198  J197 118.97620173420613 0.013 0.0 0.0 0.0 0.0
C229 J195  J197 185.96858411977118 0.013 0.0 0.0 0.0 0.0
C230 J195  J193 115.64356677542955 0.013 0.0 0.0 0.0 0.0
C231 J195  J196 135.69937352160366 0.013 0.0 0.0 0.0 0.0
C232 J200  J199 209.10422315601707 0.015 0.0 0.0 0.0 0.0
C233 J201  J196 177.40847195046976 0.015 0.0 0.0 0.0 0.0
C234 J202  J201 333.11236747226536 0.015 0.0 0.0 0.0 0.0
C235 J202  J203 245.36101479075023 0.015 0.0 0.0 0.0 0.0
C236 J203 out21  6.870950391701375 0.015 0.0 0.0 0.0 0.0
C237 J204  J203  245.1989861905859 0.015 0.0 0.0 0.0 0.0
C238 J205  J204 119.05098692948017 0.015 0.0 0.0 0.0 0.0
C239 J214  J215  663.7993534776817 0.015 0.0 0.0 0.0 0.0
C240 J218  J215  219.1422699906108 0.015 0.0 0.0 0.0 0.0
C241 J219  J218  427.5048354788801 0.015 0.0 0.0 0.0 0.0
C242 J219 out22 30.108075874204303 0.015 0.0 0.0 0.0 0.0
C243 J222  J221 439.60592325984504 0.015 0.0 0.0 0.0 0.0
C244 J220  J221  58.92891911158714 0.015 0.0 0.0 0.0 0.0
C245 J220 out39  38.38601025346599 0.015 0.0 0.0 0.0 0.0
C246 J216  J217  272.7650851474207 0.015 0.0 0.0 0.0 0.0
C247 J217  out5  56.77743966340735 0.015 0.0 0.0 0.0 0.0
C248 J220  out4 15.383221202651606 0.015 0.0 0.0 0.0 0.0
C249 J223  out1 356.68272979576386 0.015 0.0 0.0 0.0 0.0
C250 J203 out43 221.80165068381282 0.015 0.0 0.0 0.0 0.0
C251 J208  J207 169.68555220453086 0.013 0.0 0.0 0.0 0.0
C252 J207  J206  48.20032795631061 0.013 0.0 0.0 0.0 0.0
C253 J206  out7 11.819402262022344 0.013 0.0 0.0 0.0 0.0
C254 J213  J206  273.2232194164826  0.01 0.0 0.0 0.0 0.0
C255 J212  J213 110.67521454579648  0.01 0.0 0.0 0.0 0.0
C256 J211  J210  99.84438890769694  0.01 0.0 0.0 0.0 0.0
C257 J210  J208  232.8446963298087  0.01 0.0 0.0 0.0 0.0
C258 J210  J209 237.69315121472482  0.01 0.0 0.0 0.0 0.0

[XSECTIONS]
;;Name XsectShape Geom1 Geom2 Geom3 Geom4 Barrels Culvert
;;-------------------------------------------------------
  C4 CIRCULAR 1.4 0.0 0.0 0.0 1 
  C5 CIRCULAR 0.8 0.0 0.0 0.0 1 
  C6 CIRCULAR 0.8 0.0 0.0 0.0 1 
  C7 CIRCULAR 0.8 0.0 0.0 0.0 1 
  C8 CIRCULAR 0.8 0.0 0.0 0.0 1 
  C9 CIRCULAR 0.8 0.0 0.0 0.0 1 
 C10 CIRCULAR 0.8 0.0 0.0 0.0 1 
 C11 CIRCULAR 0.8 0.0 0.0 0.0 1 
 C12 CIRCULAR 0.8 0.0 0.0 0.0 1 
 C13 CIRCULAR 0.8 0.0 0.0 0.0 1 
 C14 CIRCULAR 1.0 0.0 0.0 0.0 1 
 C15 CIRCULAR 1.4 0.0 0.0 0.0 1 
 C16 CIRCULAR 1.4 0.0 0.0 0.0 1 
 C17 CIRCULAR 0.8 0.0 0.0 0.0 1 
 C18 CIRCULAR 0.8 0.0 0.0 0.0 1 
 C19 CIRCULAR 1.0 0.0 0.0 0.0 1 
 C20 CIRCULAR 0.8 0.0 0.0 0.0 1 
 C21 CIRCULAR 0.8 0.0 0.0 0.0 1 
 C22 CIRCULAR 0.8 0.0 0.0 0.0 1 
 C23 CIRCULAR 0.8 0.0 0.0 0.0 1 
 C24 CIRCULAR 0.8 0.0 0.0 0.0 1 
 C25 CIRCULAR 0.8 0.0 0.0 0.0 1 
 C26 CIRCULAR 0.8 0.0 0.0 0.0 1 
 C27 CIRCULAR 0.8 0.0 0.0 0.0 1 
 C28 CIRCULAR 0.8 0.0 0.0 0.0 1 
 C29 CIRCULAR 0.8 0.0 0.0 0.0 1 
 C30 CIRCULAR 0.8 0.0 0.0 0.0 1 
 C31 CIRCULAR 0.8 0.0 0.0 0.0 1 
 C32 CIRCULAR 0.8 0.0 0.0 0.0 1 
 C33 CIRCULAR 0.8 0.0 0.0 0.0 1 
 C34 CIRCULAR 0.8 0.0 0.0 0.0 1 
 C35 CIRCULAR 0.8 0.0 0.0 0.0 1 
 C36 CIRCULAR 0.8 0.0 0.0 0.0 1 
 C37 CIRCULAR 0.8 0.0 0.0 0.0 1 
 C38 CIRCULAR 0.8 0.0 0.0 0.0 1 
 C39 CIRCULAR 0.8 0.0 0.0 0.0 1 
 C40 CIRCULAR 0.8 0.0 0.0 0.0 1 
 C41 CIRCULAR 0.8 0.0 0.0 0.0 1 
 C42 CIRCULAR 0.8 0.0 0.0 0.0 1 
 C43 CIRCULAR 0.8 0.0 0.0 0.0 1 
 C44 CIRCULAR 1.2 0.0 0.0 0.0 1 
 C45 CIRCULAR 1.2 0.0 0.0 0.0 1 
 C46 CIRCULAR 0.8 0.0 0.0 0.0 1 
 C47 CIRCULAR 0.8 0.0 0.0 0.0 1 
 C48 CIRCULAR 0.8 0.0 0.0 0.0 1 
 C49 CIRCULAR 0.8 0.0 0.0 0.0 1 
 C50 CIRCULAR 0.8 0.0 0.0 0.0 1 
 C51 CIRCULAR 0.8 0.0 0.0 0.0 1 
 C52 CIRCULAR 0.8 0.0 0.0 0.0 1 
 C53 CIRCULAR 0.8 0.0 0.0 0.0 1 
 C54 CIRCULAR 0.8 0.0 0.0 0.0 1 
 C55 CIRCULAR 0.8 0.0 0.0 0.0 1 
 C56 CIRCULAR 0.8 0.0 0.0 0.0 1 
 C57 CIRCULAR 0.8 0.0 0.0 0.0 1 
 C58 CIRCULAR 0.8 0.0 0.0 0.0 1 
 C59 CIRCULAR 0.8 0.0 0.0 0.0 1 
 C60 CIRCULAR 0.8 0.0 0.0 0.0 1 
 C61 CIRCULAR 0.8 0.0 0.0 0.0 1 
 C62 CIRCULAR 0.8 0.0 0.0 0.0 1 
 C63 CIRCULAR 0.8 0.0 0.0 0.0 1 
 C64 CIRCULAR 0.8 0.0 0.0 0.0 1 
 C65 CIRCULAR 0.8 0.0 0.0 0.0 1 
 C66 CIRCULAR 0.8 0.0 0.0 0.0 1 
 C67 CIRCULAR 0.8 0.0 0.0 0.0 1 
 C68 CIRCULAR 0.8 0.0 0.0 0.0 1 
 C69 CIRCULAR 0.8 0.0 0.0 0.0 1 
 C70 CIRCULAR 0.8 0.0 0.0 0.0 1 
 C71 CIRCULAR 0.8 0.0 0.0 0.0 1 
 C72 CIRCULAR 0.8 0.0 0.0 0.0 1 
 C73 CIRCULAR 0.8 0.0 0.0 0.0 1 
 C74 CIRCULAR 0.8 0.0 0.0 0.0 1 
 C75 CIRCULAR 0.8 0.0 0.0 0.0 1 
 C76 CIRCULAR 0.8 0.0 0.0 0.0 1 
 C77 CIRCULAR 0.8 0.0 0.0 0.0 1 
 C78 CIRCULAR 0.8 0.0 0.0 0.0 1 
 C79 CIRCULAR 0.8 0.0 0.0 0.0 1 
 C80 CIRCULAR 0.8 0.0 0.0 0.0 1 
 C81 CIRCULAR 0.8 0.0 0.0 0.0 1 
 C82 CIRCULAR 0.8 0.0 0.0 0.0 1 
 C83 CIRCULAR 0.8 0.0 0.0 0.0 1 
 C84 CIRCULAR 0.8 0.0 0.0 0.0 1 
 C85 CIRCULAR 0.8 0.0 0.0 0.0 1 
 C86 CIRCULAR 0.8 0.0 0.0 0.0 1 
 C87 CIRCULAR 0.8 0.0 0.0 0.0 1 
 C88 CIRCULAR 0.8 0.0 0.0 0.0 1 
 C89 CIRCULAR 0.8 0.0 0.0 0.0 1 
 C90 CIRCULAR 0.8 0.0 0.0 0.0 1 
 C91 CIRCULAR 0.8 0.0 0.0 0.0 1 
 C92 CIRCULAR 1.0 0.0 0.0 0.0 1 
 C93 CIRCULAR 0.8 0.0 0.0 0.0 1 
 C94 CIRCULAR 1.0 0.0 0.0 0.0 1 
 C95 CIRCULAR 0.8 0.0 0.0 0.0 1 
 C96 CIRCULAR 0.8 0.0 0.0 0.0 1 
 C97 CIRCULAR 0.8 0.0 0.0 0.0 1 
 C98 CIRCULAR 0.8 0.0 0.0 0.0 1 
 C99 CIRCULAR 0.8 0.0 0.0 0.0 1 
C100 CIRCULAR 0.8 0.0 0.0 0.0 1 
C101 CIRCULAR 0.8 0.0 0.0 0.0 1 
C102 CIRCULAR 0.8 0.0 0.0 0.0 1 
C103 CIRCULAR 0.8 0.0 0.0 0.0 1 
C104 CIRCULAR 0.8 0.0 0.0 0.0 1 
C105 CIRCULAR 0.8 0.0 0.0 0.0 1 
C106 CIRCULAR 0.8 0.0 0.0 0.0 1 
C107 CIRCULAR 0.8 0.0 0.0 0.0 1 
C108 CIRCULAR 0.8 0.0 0.0 0.0 1 
C109 CIRCULAR 0.8 0.0 0.0 0.0 1 
C110 CIRCULAR 0.8 0.0 0.0 0.0 1 
C111 CIRCULAR 0.8 0.0 0.0 0.0 1 
C112 CIRCULAR 0.8 0.0 0.0 0.0 1 
C113 CIRCULAR 0.8 0.0 0.0 0.0 1 
C114 CIRCULAR 0.8 0.0 0.0 0.0 1 
C115 CIRCULAR 0.8 0.0 0.0 0.0 1 
C116 CIRCULAR 0.8 0.0 0.0 0.0 1 
C117 CIRCULAR 0.8 0.0 0.0 0.0 1 
C118 CIRCULAR 0.8 0.0 0.0 0.0 1 
C119 CIRCULAR 0.8 0.0 0.0 0.0 1 
C120 CIRCULAR 0.8 0.0 0.0 0.0 1 
C121 CIRCULAR 0.8 0.0 0.0 0.0 1 
C122 CIRCULAR 0.8 0.0 0.0 0.0 1 
C123 CIRCULAR 0.8 0.0 0.0 0.0 1 
C124 CIRCULAR 0.8 0.0 0.0 0.0 1 
C125 CIRCULAR 0.8 0.0 0.0 0.0 1 
C126 CIRCULAR 0.8 0.0 0.0 0.0 1 
C127 CIRCULAR 0.8 0.0 0.0 0.0 1 
C128 CIRCULAR 0.8 0.0 0.0 0.0 1 
C129 CIRCULAR 0.8 0.0 0.0 0.0 1 
C130 CIRCULAR 0.8 0.0 0.0 0.0 1 
C131 CIRCULAR 0.8 0.0 0.0 0.0 1 
C132 CIRCULAR 0.8 0.0 0.0 0.0 1 
C133 CIRCULAR 0.8 0.0 0.0 0.0 1 
C134 CIRCULAR 0.8 0.0 0.0 0.0 1 
C135 CIRCULAR 0.8 0.0 0.0 0.0 1 
C136 CIRCULAR 0.8 0.0 0.0 0.0 1 
C137 CIRCULAR 0.8 0.0 0.0 0.0 1 
C138 CIRCULAR 0.8 0.0 0.0 0.0 1 
C139 CIRCULAR 0.8 0.0 0.0 0.0 1 
C140 CIRCULAR 0.8 0.0 0.0 0.0 1 
C141 CIRCULAR 0.8 0.0 0.0 0.0 1 
C142 CIRCULAR 0.8 0.0 0.0 0.0 1 
C143 CIRCULAR 0.8 0.0 0.0 0.0 1 
C144 CIRCULAR 0.8 0.0 0.0 0.0 1 
C145 CIRCULAR 0.8 0.0 0.0 0.0 1 
C146 CIRCULAR 0.8 0.0 0.0 0.0 1 
C147 CIRCULAR 0.8 0.0 0.0 0.0 1 
C148 CIRCULAR 0.8 0.0 0.0 0.0 1 
C149 CIRCULAR 0.8 0.0 0.0 0.0 1 
C150 CIRCULAR 0.8 0.0 0.0 0.0 1 
C151 CIRCULAR 0.8 0.0 0.0 0.0 1 
C152 CIRCULAR 0.8 0.0 0.0 0.0 1 
C153 CIRCULAR 0.8 0.0 0.0 0.0 1 
C154 CIRCULAR 0.8 0.0 0.0 0.0 1 
C155 CIRCULAR 0.8 0.0 0.0 0.0 1 
C156 CIRCULAR 1.0 0.0 0.0 0.0 1 
C157 CIRCULAR 0.8 0.0 0.0 0.0 1 
C158 CIRCULAR 0.8 0.0 0.0 0.0 1 
C159 CIRCULAR 0.8 0.0 0.0 0.0 1 
C160 CIRCULAR 0.8 0.0 0.0 0.0 1 
C161 CIRCULAR 0.8 0.0 0.0 0.0 1 
C162 CIRCULAR 0.8 0.0 0.0 0.0 1 
C163 CIRCULAR 0.8 0.0 0.0 0.0 1 
C164 CIRCULAR 1.0 0.0 0.0 0.0 1 
C165 CIRCULAR 1.0 0.0 0.0 0.0 1 
C166 CIRCULAR 0.8 0.0 0.0 0.0 1 
C167 CIRCULAR 0.8 0.0 0.0 0.0 1 
C168 CIRCULAR 0.8 0.0 0.0 0.0 1 
C169 CIRCULAR 0.8 0.0 0.0 0.0 1 
C170 CIRCULAR 0.8 0.0 0.0 0.0 1 
C171 CIRCULAR 0.8 0.0 0.0 0.0 1 
C172 CIRCULAR 0.8 0.0 0.0 0.0 1 
C173 CIRCULAR 0.8 0.0 0.0 0.0 1 
C174 CIRCULAR 0.8 0.0 0.0 0.0 1 
C175 CIRCULAR 0.8 0.0 0.0 0.0 1 
C176 CIRCULAR 0.8 0.0 0.0 0.0 1 
C177 CIRCULAR 1.0 0.0 0.0 0.0 1 
C178 CIRCULAR 0.8 0.0 0.0 0.0 1 
C179 CIRCULAR 1.0 0.0 0.0 0.0 1 
C180 CIRCULAR 0.8 0.0 0.0 0.0 1 
C181 CIRCULAR 1.0 0.0 0.0 0.0 1 
C182 CIRCULAR 1.2 0.0 0.0 0.0 1 
C183 CIRCULAR 1.2 0.0 0.0 0.0 1 
C184 CIRCULAR 0.8 0.0 0.0 0.0 1 
C185 CIRCULAR 0.8 0.0 0.0 0.0 1 
C186 CIRCULAR 0.8 0.0 0.0 0.0 1 
C187 CIRCULAR 0.8 0.0 0.0 0.0 1 
C188 CIRCULAR 0.8 0.0 0.0 0.0 1 
C189 CIRCULAR 0.8 0.0 0.0 0.0 1 
C190 CIRCULAR 0.8 0.0 0.0 0.0 1 
C191 CIRCULAR 0.8 0.0 0.0 0.0 1 
C192 CIRCULAR 0.8 0.0 0.0 0.0 1 
C193 CIRCULAR 1.0 0.0 0.0 0.0 1 
C194 CIRCULAR 1.0 0.0 0.0 0.0 1 
C195 CIRCULAR 0.8 0.0 0.0 0.0 1 
C196 CIRCULAR 0.8 0.0 0.0 0.0 1 
C197 CIRCULAR 0.8 0.0 0.0 0.0 1 
C198 CIRCULAR 0.8 0.0 0.0 0.0 1 
C199 CIRCULAR 0.8 0.0 0.0 0.0 1 
C200 CIRCULAR 0.8 0.0 0.0 0.0 1 
C201 CIRCULAR 0.8 0.0 0.0 0.0 1 
C202 CIRCULAR 0.8 0.0 0.0 0.0 1 
C203 CIRCULAR 0.8 0.0 0.0 0.0 1 
C204 CIRCULAR 0.8 0.0 0.0 0.0 1 
C205 CIRCULAR 0.8 0.0 0.0 0.0 1 
C206 CIRCULAR 0.8 0.0 0.0 0.0 1 
C207 CIRCULAR 0.8 0.0 0.0 0.0 1 
C208 CIRCULAR 1.0 0.0 0.0 0.0 1 
C209 CIRCULAR 0.8 0.0 0.0 0.0 1 
C210 CIRCULAR 0.8 0.0 0.0 0.0 1 
C211 CIRCULAR 0.8 0.0 0.0 0.0 1 
C212 CIRCULAR 0.8 0.0 0.0 0.0 1 
C213 CIRCULAR 0.8 0.0 0.0 0.0 1 
C214 CIRCULAR 0.8 0.0 0.0 0.0 1 
C215 CIRCULAR 0.8 0.0 0.0 0.0 1 
C216 CIRCULAR 0.8 0.0 0.0 0.0 1 
C217 CIRCULAR 0.8 0.0 0.0 0.0 1 
C218 CIRCULAR 0.8 0.0 0.0 0.0 1 
C219 CIRCULAR 0.8 0.0 0.0 0.0 1 
C220 CIRCULAR 0.8 0.0 0.0 0.0 1 
C221 CIRCULAR 2.0 0.0 0.0 0.0 1 
C222 CIRCULAR 0.8 0.0 0.0 0.0 1 
C223 CIRCULAR 0.8 0.0 0.0 0.0 1 
C224 CIRCULAR 0.8 0.0 0.0 0.0 1 
C225 CIRCULAR 0.8 0.0 0.0 0.0 1 
C226 CIRCULAR 0.8 0.0 0.0 0.0 1 
C227 CIRCULAR 0.8 0.0 0.0 0.0 1 
C228 CIRCULAR 0.8 0.0 0.0 0.0 1 
C229 CIRCULAR 0.8 0.0 0.0 0.0 1 
C230 CIRCULAR 0.8 0.0 0.0 0.0 1 
C231 CIRCULAR 0.8 0.0 0.0 0.0 1 
C232 CIRCULAR 0.8 0.0 0.0 0.0 1 
C233 CIRCULAR 0.8 0.0 0.0 0.0 1 
C234 CIRCULAR 0.8 0.0 0.0 0.0 1 
C235 CIRCULAR 0.8 0.0 0.0 0.0 1 
C236 CIRCULAR 0.8 0.0 0.0 0.0 1 
C237 CIRCULAR 0.8 0.0 0.0 0.0 1 
C238 CIRCULAR 0.8 0.0 0.0 0.0 1 
C239 CIRCULAR 0.8 0.0 0.0 0.0 1 
C240 CIRCULAR 0.8 0.0 0.0 0.0 1 
C241 CIRCULAR 0.8 0.0 0.0 0.0 1 
C242 CIRCULAR 0.8 0.0 0.0 0.0 1 
C243 CIRCULAR 0.8 0.0 0.0 0.0 1 
C244 CIRCULAR 0.8 0.0 0.0 0.0 1 
C245 CIRCULAR 0.8 0.0 0.0 0.0 1 
C246 CIRCULAR 0.8 0.0 0.0 0.0 1 
C247 CIRCULAR 0.8 0.0 0.0 0.0 1 
C248 CIRCULAR 0.8 0.0 0.0 0.0 1 
C249 CIRCULAR 0.8 0.0 0.0 0.0 1 
C250 CIRCULAR 0.8 0.0 0.0 0.0 1 
C251 CIRCULAR 0.8 0.0 0.0 0.0 1 
C252 CIRCULAR 0.8 0.0 0.0 0.0 1 
C253 CIRCULAR 0.8 0.0 0.0 0.0 1 
C254 CIRCULAR 0.8 0.0 0.0 0.0 1 
C255 CIRCULAR 0.8 0.0 0.0 0.0 1 
C256 CIRCULAR 0.8 0.0 0.0 0.0 1 
C257 CIRCULAR 0.8 0.0 0.0 0.0 1 
C258 CIRCULAR 0.8 0.0 0.0 0.0 1 

[LOSSES]
;;Name Kentry Kexit Kavg FlapGate Seepage
;;---------------------------------------
  C4 0.0 0.0 0.0 NO 0.0
  C5 0.0 0.0 0.0 NO 0.0
  C6 0.0 0.0 0.0 NO 0.0
  C7 0.0 0.0 0.0 NO 0.0
  C8 0.0 0.0 0.0 NO 0.0
  C9 0.0 0.0 0.0 NO 0.0
 C10 0.0 0.0 0.0 NO 0.0
 C11 0.0 0.0 0.0 NO 0.0
 C12 0.0 0.0 0.0 NO 0.0
 C13 0.0 0.0 0.0 NO 0.0
 C14 0.0 0.0 0.0 NO 0.0
 C15 0.0 0.0 0.0 NO 0.0
 C16 0.0 0.0 0.0 NO 0.0
 C17 0.0 0.0 0.0 NO 0.0
 C18 0.0 0.0 0.0 NO 0.0
 C19 0.0 0.0 0.0 NO 0.0
 C20 0.0 0.0 0.0 NO 0.0
 C21 0.0 0.0 0.0 NO 0.0
 C22 0.0 0.0 0.0 NO 0.0
 C23 0.0 0.0 0.0 NO 0.0
 C24 0.0 0.0 0.0 NO 0.0
 C25 0.0 0.0 0.0 NO 0.0
 C26 0.0 0.0 0.0 NO 0.0
 C27 0.0 0.0 0.0 NO 0.0
 C28 0.0 0.0 0.0 NO 0.0
 C29 0.0 0.0 0.0 NO 0.0
 C30 0.0 0.0 0.0 NO 0.0
 C31 0.0 0.0 0.0 NO 0.0
 C32 0.0 0.0 0.0 NO 0.0
 C33 0.0 0.0 0.0 NO 0.0
 C34 0.0 0.0 0.0 NO 0.0
 C35 0.0 0.0 0.0 NO 0.0
 C36 0.0 0.0 0.0 NO 0.0
 C37 0.0 0.0 0.0 NO 0.0
 C38 0.0 0.0 0.0 NO 0.0
 C39 0.0 0.0 0.0 NO 0.0
 C40 0.0 0.0 0.0 NO 0.0
 C41 0.0 0.0 0.0 NO 0.0
 C42 0.0 0.0 0.0 NO 0.0
 C43 0.0 0.0 0.0 NO 0.0
 C44 0.0 0.0 0.0 NO 0.0
 C45 0.0 0.0 0.0 NO 0.0
 C46 0.0 0.0 0.0 NO 0.0
 C47 0.0 0.0 0.0 NO 0.0
 C48 0.0 0.0 0.0 NO 0.0
 C49 0.0 0.0 0.0 NO 0.0
 C50 0.0 0.0 0.0 NO 0.0
 C51 0.0 0.0 0.0 NO 0.0
 C52 0.0 0.0 0.0 NO 0.0
 C53 0.0 0.0 0.0 NO 0.0
 C54 0.0 0.0 0.0 NO 0.0
 C55 0.0 0.0 0.0 NO 0.0
 C56 0.0 0.0 0.0 NO 0.0
 C57 0.0 0.0 0.0 NO 0.0
 C58 0.0 0.0 0.0 NO 0.0
 C59 0.0 0.0 0.0 NO 0.0
 C60 0.0 0.0 0.0 NO 0.0
 C61 0.0 0.0 0.0 NO 0.0
 C62 0.0 0.0 0.0 NO 0.0
 C63 0.0 0.0 0.0 NO 0.0
 C64 0.0 0.0 0.0 NO 0.0
 C65 0.0 0.0 0.0 NO 0.0
 C66 0.0 0.0 0.0 NO 0.0
 C67 0.0 0.0 0.0 NO 0.0
 C68 0.0 0.0 0.0 NO 0.0
 C69 0.0 0.0 0.0 NO 0.0
 C70 0.0 0.0 0.0 NO 0.0
 C71 0.0 0.0 0.0 NO 0.0
 C72 0.0 0.0 0.0 NO 0.0
 C73 0.0 0.0 0.0 NO 0.0
 C74 0.0 0.0 0.0 NO 0.0
 C75 0.0 0.0 0.0 NO 0.0
 C76 0.0 0.0 0.0 NO 0.0
 C77 0.0 0.0 0.0 NO 0.0
 C78 0.0 0.0 0.0 NO 0.0
 C79 0.0 0.0 0.0 NO 0.0
 C80 0.0 0.0 0.0 NO 0.0
 C81 0.0 0.0 0.0 NO 0.0
 C82 0.0 0.0 0.0 NO 0.0
 C83 0.0 0.0 0.0 NO 0.0
 C84 0.0 0.0 0.0 NO 0.0
 C85 0.0 0.0 0.0 NO 0.0
 C86 0.0 0.0 0.0 NO 0.0
 C87 0.0 0.0 0.0 NO 0.0
 C88 0.0 0.0 0.0 NO 0.0
 C89 0.0 0.0 0.0 NO 0.0
 C90 0.0 0.0 0.0 NO 0.0
 C91 0.0 0.0 0.0 NO 0.0
 C92 0.0 0.0 0.0 NO 0.0
 C93 0.0 0.0 0.0 NO 0.0
 C94 0.0 0.0 0.0 NO 0.0
 C95 0.0 0.0 0.0 NO 0.0
 C96 0.0 0.0 0.0 NO 0.0
 C97 0.0 0.0 0.0 NO 0.0
 C98 0.0 0.0 0.0 NO 0.0
 C99 0.0 0.0 0.0 NO 0.0
C100 0.0 0.0 0.0 NO 0.0
C101 0.0 0.0 0.0 NO 0.0
C102 0.0 0.0 0.0 NO 0.0
C103 0.0 0.0 0.0 NO 0.0
C104 0.0 0.0 0.0 NO 0.0
C105 0.0 0.0 0.0 NO 0.0
C106 0.0 0.0 0.0 NO 0.0
C107 0.0 0.0 0.0 NO 0.0
C108 0.0 0.0 0.0 NO 0.0
C109 0.0 0.0 0.0 NO 0.0
C110 0.0 0.0 0.0 NO 0.0
C111 0.0 0.0 0.0 NO 0.0
C112 0.0 0.0 0.0 NO 0.0
C113 0.0 0.0 0.0 NO 0.0
C114 0.0 0.0 0.0 NO 0.0
C115 0.0 0.0 0.0 NO 0.0
C116 0.0 0.0 0.0 NO 0.0
C117 0.0 0.0 0.0 NO 0.0
C118 0.0 0.0 0.0 NO 0.0
C119 0.0 0.0 0.0 NO 0.0
C120 0.0 0.0 0.0 NO 0.0
C121 0.0 0.0 0.0 NO 0.0
C122 0.0 0.0 0.0 NO 0.0
C123 0.0 0.0 0.0 NO 0.0
C124 0.0 0.0 0.0 NO 0.0
C125 0.0 0.0 0.0 NO 0.0
C126 0.0 0.0 0.0 NO 0.0
C127 0.0 0.0 0.0 NO 0.0
C128 0.0 0.0 0.0 NO 0.0
C129 0.0 0.0 0.0 NO 0.0
C130 0.0 0.0 0.0 NO 0.0
C131 0.0 0.0 0.0 NO 0.0
C132 0.0 0.0 0.0 NO 0.0
C133 0.0 0.0 0.0 NO 0.0
C134 0.0 0.0 0.0 NO 0.0
C135 0.0 0.0 0.0 NO 0.0
C136 0.0 0.0 0.0 NO 0.0
C137 0.0 0.0 0.0 NO 0.0
C138 0.0 0.0 0.0 NO 0.0
C139 0.0 0.0 0.0 NO 0.0
C140 0.0 0.0 0.0 NO 0.0
C141 0.0 0.0 0.0 NO 0.0
C142 0.0 0.0 0.0 NO 0.0
C143 0.0 0.0 0.0 NO 0.0
C144 0.0 0.0 0.0 NO 0.0
C145 0.0 0.0 0.0 NO 0.0
C146 0.0 0.0 0.0 NO 0.0
C147 0.0 0.0 0.0 NO 0.0
C148 0.0 0.0 0.0 NO 0.0
C149 0.0 0.0 0.0 NO 0.0
C150 0.0 0.0 0.0 NO 0.0
C151 0.0 0.0 0.0 NO 0.0
C152 0.0 0.0 0.0 NO 0.0
C153 0.0 0.0 0.0 NO 0.0
C154 0.0 0.0 0.0 NO 0.0
C155 0.0 0.0 0.0 NO 0.0
C156 0.0 0.0 0.0 NO 0.0
C157 0.0 0.0 0.0 NO 0.0
C158 0.0 0.0 0.0 NO 0.0
C159 0.0 0.0 0.0 NO 0.0
C160 0.0 0.0 0.0 NO 0.0
C161 0.0 0.0 0.0 NO 0.0
C162 0.0 0.0 0.0 NO 0.0
C163 0.0 0.0 0.0 NO 0.0
C164 0.0 0.0 0.0 NO 0.0
C165 0.0 0.0 0.0 NO 0.0
C166 0.0 0.0 0.0 NO 0.0
C167 0.0 0.0 0.0 NO 0.0
C168 0.0 0.0 0.0 NO 0.0
C169 0.0 0.0 0.0 NO 0.0
C170 0.0 0.0 0.0 NO 0.0
C171 0.0 0.0 0.0 NO 0.0
C172 0.0 0.0 0.0 NO 0.0
C173 0.0 0.0 0.0 NO 0.0
C174 0.0 0.0 0.0 NO 0.0
C175 0.0 0.0 0.0 NO 0.0
C176 0.0 0.0 0.0 NO 0.0
C177 0.0 0.0 0.0 NO 0.0
C178 0.0 0.0 0.0 NO 0.0
C179 0.0 0.0 0.0 NO 0.0
C180 0.0 0.0 0.0 NO 0.0
C181 0.0 0.0 0.0 NO 0.0
C182 0.0 0.0 0.0 NO 0.0
C183 0.0 0.0 0.0 NO 0.0
C184 0.0 0.0 0.0 NO 0.0
C185 0.0 0.0 0.0 NO 0.0
C186 0.0 0.0 0.0 NO 0.0
C187 0.0 0.0 0.0 NO 0.0
C188 0.0 0.0 0.0 NO 0.0
C189 0.0 0.0 0.0 NO 0.0
C190 0.0 0.0 0.0 NO 0.0
C191 0.0 0.0 0.0 NO 0.0
C192 0.0 0.0 0.0 NO 0.0
C193 0.0 0.0 0.0 NO 0.0
C194 0.0 0.0 0.0 NO 0.0
C195 0.0 0.0 0.0 NO 0.0
C196 0.0 0.0 0.0 NO 0.0
C197 0.0 0.0 0.0 NO 0.0
C198 0.0 0.0 0.0 NO 0.0
C199 0.0 0.0 0.0 NO 0.0
C200 0.0 0.0 0.0 NO 0.0
C201 0.0 0.0 0.0 NO 0.0
C202 0.0 0.0 0.0 NO 0.0
C203 0.0 0.0 0.0 NO 0.0
C204 0.0 0.0 0.0 NO 0.0
C205 0.0 0.0 0.0 NO 0.0
C206 0.0 0.0 0.0 NO 0.0
C207 0.0 0.0 0.0 NO 0.0
C208 0.0 0.0 0.0 NO 0.0
C209 0.0 0.0 0.0 NO 0.0
C210 0.0 0.0 0.0 NO 0.0
C211 0.0 0.0 0.0 NO 0.0
C212 0.0 0.0 0.0 NO 0.0
C213 0.0 0.0 0.0 NO 0.0
C214 0.0 0.0 0.0 NO 0.0
C215 0.0 0.0 0.0 NO 0.0
C216 0.0 0.0 0.0 NO 0.0
C217 0.0 0.0 0.0 NO 0.0
C218 0.0 0.0 0.0 NO 0.0
C219 0.0 0.0 0.0 NO 0.0
C220 0.0 0.0 0.0 NO 0.0
C221 0.0 0.0 0.0 NO 0.0
C222 0.0 0.0 0.0 NO 0.0
C223 0.0 0.0 0.0 NO 0.0
C224 0.0 0.0 0.0 NO 0.0
C225 0.0 0.0 0.0 NO 0.0
C226 0.0 0.0 0.0 NO 0.0
C227 0.0 0.0 0.0 NO 0.0
C228 0.0 0.0 0.0 NO 0.0
C229 0.0 0.0 0.0 NO 0.0
C230 0.0 0.0 0.0 NO 0.0
C231 0.0 0.0 0.0 NO 0.0
C232 0.0 0.0 0.0 NO 0.0
C233 0.0 0.0 0.0 NO 0.0
C234 0.0 0.0 0.0 NO 0.0
C235 0.0 0.0 0.0 NO 0.0
C236 0.0 0.0 0.0 NO 0.0
C237 0.0 0.0 0.0 NO 0.0
C238 0.0 0.0 0.0 NO 0.0
C239 0.0 0.0 0.0 NO 0.0
C240 0.0 0.0 0.0 NO 0.0
C241 0.0 0.0 0.0 NO 0.0
C242 0.0 0.0 0.0 NO 0.0
C243 0.0 0.0 0.0 NO 0.0
C244 0.0 0.0 0.0 NO 0.0
C245 0.0 0.0 0.0 NO 0.0
C246 0.0 0.0 0.0 NO 0.0
C247 0.0 0.0 0.0 NO 0.0
C248 0.0 0.0 0.0 NO 0.0
C249 0.0 0.0 0.0 NO 0.0
C250 0.0 0.0 0.0 NO 0.0
C251 0.0 0.0 0.0 NO 0.0
C252 0.0 0.0 0.0 NO 0.0
C253 0.0 0.0 0.0 NO 0.0
C254 0.0 0.0 0.0 NO 0.0
C255 0.0 0.0 0.0 NO 0.0
C256 0.0 0.0 0.0 NO 0.0
C257 0.0 0.0 0.0 NO 0.0
C258 0.0 0.0 0.0 NO 0.0

[REPORT]
SUBCATCHMENTS ALL
NODES ALL
LINKS ALL

[TAGS]

[COORDINATES]
;;Name X_Coord Y_Coord
;;--------------------
   J4  396719.5952417342 2187615.4504343327
   J5  395996.1732470741 2187424.8604366737
   J6 395690.80524947017 2187456.9704367905
   J7 395899.56524930376  2188682.289427123
   J8  395866.6962495994  2188719.795426874
   J9 395772.35324947303  2187992.542432565
  J10 395728.13124982384  2188002.055432545
  J11  395589.9102497399  2187026.283440237
  J12  395544.5192501004  2187033.574440237
  J13 395500.48324986955 2186552.1504440205
  J14  395452.2072502424  2186549.161444101
  J15  395405.7222500066 2186049.0014480455
  J16  395358.7582503818 2186057.5984480353
  J17  395331.0202501194 2185657.5724511873
  J18  395278.9672505059  2185640.034451385
  J19 395290.18625017675 2185440.5684529324
  J20 395240.67125054996  2185428.518453087
  J21  395329.8712498241  2185403.660453171
  J22 395215.96525076113 2185444.0324529936
  J23  395753.6992465028  2185396.062452717
  J24 395979.28824532736  2185872.811448723
  J25  395407.2632499393 2186002.4874484045
  J26 396089.64624521637 2186484.0184438396
  J27  395544.0632495684 2186582.8714437312
  J28 396057.65824597236  2186902.489440637
  J29 396035.73424623214 2186978.3524400755
  J30 395936.75224705297 2187023.2064398485
  J31  395900.5282473301 2187020.2984399144
  J32  395604.6922496024 2187008.6314403582
  J33  395552.5302500827 2187071.3374399347
  J34  394670.5062583618  2188349.836431082
  J35  394719.5612579688 2188336.4754311265
  J36 394730.48125775286 2188217.2904320345
  J37  394753.4672575793  2188220.509431982
  J38  394750.1152573534  2187996.781433711
  J39 394778.12625714124 2188002.1064336393
  J40 394757.88725718827 2187904.1454344164
  J41 394787.46925695817 2187902.7134343944
  J42   394760.971257121 2187866.8494347013
  J43 394778.48125674913 2187657.9704362955
  J44  394808.4892565221 2187662.8324362235
  J45 394785.77225659543 2187571.7414369523
  J46  395063.4712544587 2187581.4514365587
  J47 394814.28725599503  2187239.235439493
  J48 394845.17065575666 2187240.5328394487
  J49 394837.17825553875   2186997.62444134
  J50  395110.6592534798 2187050.1184406173
  J51 394851.81425515004 2186759.3264431725
  J52 394839.96125540324 2186898.7304421053
  J53  394854.4122550898 2186724.4904434406
  J54 394868.81525476417 2186539.0934448666
  J55 395147.27425266494 2186596.4204440936
  J56 395125.72325306566   2186796.12444257
  J57   395121.296253152  2186840.109442233
  J58  395285.5402516192 2186620.0714437487
  J59  395436.9852504174  2186598.694443734
  J60  395114.4742540719 2187587.0834364574
  J61  395330.3712523404  2187531.381436639
  J62  395504.6392509195 2187467.0194369326
  J63  395511.9422509012  2187499.309436673
  J64 395608.56025013054 2187478.5254367213
  J65  394997.5362557778 2188290.6774311676
  J66 395086.30925390474  2187253.439439072
  J67 395105.23325375974  2187255.501439033
  J68 395346.84025110217  2186584.683443949
  J69  395274.9392512471 2186236.3654467426
  J70 394951.86925373314 2186210.7734473227
  J71   395273.593251194  2186182.549447164
  J72 395341.01125074126 2186243.0064466135
  J73  394900.5822541177 2186198.3704474806
  J74  394906.8902538931 2186048.2214486436
  J75 394924.33225340367  2185748.244450965
  J76  394992.2472528076  2185692.877451316
  J77  395124.5352515704  2185521.325452501
  J78  395096.7342517699 2185507.8214526367
  J79  394847.2972538712 2185635.0224519386
  J80   394634.197255424  2185536.231452963
  J81   394718.141254591 2185388.0304540247
  J82   394758.528254192 2185318.5174545203
  J83  394919.2752526066 2185043.4054564866
  J84 394897.39225295046 2185188.5374553744
  J85 394952.83225256077  2185225.977455015
  J86  394986.6152525472 2185437.2194533213
  J87  395246.8462502537  2185223.247454684
  J88  395190.1762509116 2185400.5384533657
  J89 394974.91125250165  2185321.587454241
  J90  395062.1332510443 2184677.5824591857
  J91 395058.91425059503  2184285.638462273
  J92 395005.66125053726  2183892.513465438
  J93 395087.24424916017 2183298.1534700375
  J94  395112.0522489399 2183278.1364701637
  J95  395027.0602503376  2183867.937465606
  J96 395069.44125043275 2184219.0694627846
  J97 395263.82225005765  2185169.739455082
  J98   395085.123250835  2184652.057459359
  J99 395084.66925040155  2184293.596462179
 J100  395231.5592492145  2184267.317462207
 J101  395577.3792465859 2184342.4934611893
 J102  395348.2422483256 2184292.4674618645
 J103  395258.2032493722  2184569.328459799
 J104 395271.40225011425  2185265.681454322
 J105 395399.44924849813  2184760.889458122
 J106 395671.21824550617 2184067.5824632347
 J107  395800.5242439514 2183641.5024664304
 J108  395741.1912446668  2183837.207464963
 J109  395452.3322468112   2183729.98346617
 J110 395625.89224523655  2183567.376467235
 J111 395423.55024672265  2183477.769468199
 J112 395838.05924350227  2183520.211467342
 J113 395642.11184494017  2183432.487268281
 J114  395486.0582460854  2183362.067469034
 J115 395633.42224516714 2183558.6514672968
 J116  395970.7902418993  2183085.176470611
 J117  395561.4292452639  2183182.495470361
 J118  395812.6062434152 2183291.9774691756
 J119  395630.5082444701 2182988.4564718087
 J120  395820.3832430359  2183042.885071136
 J121 395613.60324458336  2182971.296471966
 J122 395974.00724186073   2183075.63847068
 J123  396026.1552412399 2182912.8584719026
 J124 396063.77024079673  2182798.692472758
 J125  395187.1102483081 2183248.3324703076
 J126  395376.2982469146  2183331.074469416
 J127 395376.29724688904  2183311.050469575
 J128  395395.2652466874 2183270.3444698737
 J129  395126.4452487055  2183181.533470911
 J130   394986.587249734  2183115.291471611
 J131 394872.46825069236 2183158.9754714034
 J132 394770.07325111516 2182842.5454740413
 J133  394773.5992510684  2182827.833474155
 J134 396247.67223981966 2183169.6274695853
 J135  396054.1602412514 2183094.8074704264
 J136 396170.34324037656 2183128.4344700114
 J137  396294.9562394387  2183164.881469562
 J138  396571.1322373909 2183266.3424684014
 J139  396388.0902383575  2182897.993471551
 J140  396739.6392352361  2182639.983473132
 J141 395959.79824262764  2183587.124466658
 J142  396022.3672421614 2183608.8304664064
 J143  396144.4882412386 2183641.1294659968
 J144   396141.439241458 2183792.3794648102
 J145  396143.2092413179  2183694.598465578
 J146  396267.2812403407 2183694.4324654196
 J147 396221.92424082704  2183795.336464684
 J148  396221.1842407705  2183745.983465073
 J149 396160.52824124513  2183744.823465161
 J150  396294.2192402577  2183795.691464587
 J151   396294.981240062  2183647.131465758
 J152  396290.8626404063  2183890.868663843
 J153   396211.591841026  2183888.120463967
 J154 396140.62624151865 2183835.1564644715
 J155  396138.6072416587 2183933.3674637033
 J156  396015.1822425076  2183837.165464618
 J157 396025.29324252077  2183909.966464031
 J158  396039.8562425361 2184012.8604632015
 J159  396137.8752417085  2183968.715463425
 J160  396263.4922406763  2183933.362463544
 J161  396300.6852404425  2183979.507463133
 J162  396441.5172393375 2183982.1794629316
 J163  396455.6122391136 2183892.6144636176
 J164  396456.8032390443  2183847.348463974
 J165  396367.4218398042  2183891.258863742
 J166  396367.3952397456 2183845.5374641023
 J167 396404.14223939535 2183798.8024644237
 J168  396460.3602388222 2183696.3924651574
 J169  396439.1552389898   2183696.84346518
 J170  396462.6892387447  2183650.277465516
 J171 396467.96023868915 2183638.6054656017
 J172 396359.43223925866 2183417.4964674846
 J173  396614.4602376175 2183703.6854648995
 J174 396609.14623802586  2183985.611462689
 J175 396722.41023713845 2183988.2234625234
 J176 396787.94423662644  2183989.159462429
 J177 396723.60123700264 2183891.3554632817
 J178  396609.2842379066  2183894.598463406
 J179 396611.79423783004  2183850.467463748
 J180  396723.4282371551   2184006.13546238
 J181  396826.8302363448   2184008.14446223
 J182 396721.69423720776  2184035.891462149
 J183  396608.5872380553 2184004.4584625424
 J184 396606.58623812365 2184044.9344622265
 J185  396438.9892393828  2184001.065462787
 J186   396147.647241672   2183999.64846317
 J187  395872.1652439985  2184127.103462516
 J188  395685.2362454227  2184088.694463052
 J189 395894.59124379134 2184102.0524626854
 J190  396615.1792376754 2183750.8224645276
 J191 396756.61223656347 2183751.6534643373
 J192 395944.77424120676 2182387.4434761726
 J193  396120.9852396962  2182300.869476634
 J194  396026.4112405176 2182355.5324763213
 J195  396061.6532400363 2182201.5884774984
 J196 395942.15324106964  2182265.923477143
 J197 396221.85323863995 2182107.0924780397
 J198 396263.13123845874    2182218.6954771
 J199 395928.80824120215 2182285.5844770037
 J200 395880.42724132224  2182082.125478684
 J201 395899.49924118584  2182093.694478568
 J202  395660.1232427928  2181861.977480724
 J203 395480.65024400846   2181694.62248229
 J204  395292.8652453066  2181536.902483793
 J205  395222.8362457439 2181440.6064846525
 J206 394938.28124922677 2182398.9504773626
 J207 394984.89124886936  2182411.255477207
 J208 395037.86824824684  2182250.027478425
 J209  394592.9072516053 2182096.9874801985
 J210  394816.4762499203  2182177.798479276
 J211    394757.89025049 2182258.6644787053
 J212  394588.5942518266 2182248.4524789946
 J213  394679.2212511817 2182312.0064783785
 J214 395789.87224184186 2181926.3874800424
 J215  396391.1732366809  2181644.990481495
 J216 396670.71623417735 2181438.8394827624
 J217  396926.4072320103 2181343.7474831734
 J218 396561.03323514207  2181506.485482371
 J219 396950.37823180103 2181329.7964832527
 J220 396991.06523145206 2181311.5294833435
 J221 396942.85123188124 2181345.4254831388
 J222  396545.3622353027 2181533.3264821777
 J223  397348.6212643768 2181859.5169761158
 J224  395000.5012508625 2184126.3954635984
 J225 395000.35225084133  2184107.630463748
 J226  394790.6302524802 2184096.7494640853
 J227  394729.2682529776 2184107.2124640793
 J228  394730.4502531915   2184291.91846262
 J229  394834.8582517206  2183756.657466718
 J230 394747.04025240673 2183751.4214668674
 J231 394686.19325288536  2183748.379466964
 J232 394651.77725316037 2183751.8384669777
 J233 394584.91325367236 2183737.6914671697
 J234  394574.6312537964 2183772.0174669134
 J235  394642.5242532953  2183802.473466591
 J236 394557.25925395166   2183787.49246681
 J237  394684.6472529297  2183775.029466756
 J238 394795.66525205586  2183778.331466595
 J239  394745.9912524478 2183776.9484666665
 J240 394624.41325324995  2183645.360467853
 J241  394544.3822538689  2183633.227468046
 J242  394637.6462530939  2183602.977468173
 J243 394946.05725067755 2183623.1634676387
 J244  394935.6572506946 2183568.2294680844
 J245  394708.0172524894 2183564.7084683906
 J246 394958.94325042877  2183503.071468572
 J247 395223.60824801266 2183242.9284703056
 J248 395429.23024666373 2183465.8554682853
 out1 397642.46522674453 2181657.2514796965
 out2  394620.5152570862  2186879.732442505
 out3 394548.28325387056  2183660.708467825
 out4 396976.53623155993  2181306.468483404
 out5 396972.80423159635 2181311.0084833703
 out6 394688.03485284006  2183723.054067163
 out7  394934.5902492691  2182410.180477277
 out8 395277.99125279684 2187576.9474363476
 out9  396005.6092452647 2185990.1084477785
out10 395145.68124861363 2183229.8264705045
out11 394657.75825307565  2183719.437467228
out12 394541.61425404786  2183764.869467009
out13 394558.75825387443  2183731.984467248
out14  394746.7162523833 2183729.1844670423
out15   394855.104251535  2183735.123466864
out16 394610.41825342993 2183702.7974674157
out17 395926.60424187686 2182794.3134729695
out18  395120.7262488202 2183237.7464704746
out19 394596.57525398646 2184075.1184644927
out20 394595.09925399936 2184074.8044644953
out21  395485.6672439622  2181689.926482323
out22 396974.69523158245 2181312.0364833614
out23  394966.0012505224    2183624.8624676
out24  394968.3732504363 2183568.8534680395
out25  394990.8222501843  2183508.904468487
out26  394859.7232507904  2183157.358471433
out27  394895.4112541414  2186184.242447595
out28  396614.3782375788   2183671.71346515
out29  396602.9002376305  2183642.071465399
out30  396603.3492376292  2183643.341465388
out31 396807.17924298084  2189200.358422091
out32  394612.4012538586  2184072.288464495
out33 394666.37125841016 2188364.6834309697
out34  396060.6940407876 2182772.9400729667
out35  396001.3572452817 2185975.8134478955
out36   396720.435241727 2187615.7324343286
out37  395125.9692487208  2183189.520470849
out38 395944.57124123303  2182405.769476029
out39  397017.7682312007  2181283.946483527
out40 394891.50325401465 2186048.9834486553
out41  395324.6042524313 2187571.2474363362
out42  395264.2932512195 2186141.7874474907
out43  395259.0252457666  2181685.049482652
out45  395229.0192475015   2182867.89947327
 vir1  393997.7032725309 2182899.9472792963
 vir2  393420.2283118404 2182535.5213332297
 vir3  393479.0971185127 2182019.7184557198
 vir4 398572.65053392405 2181250.9198733433
 vir5 396993.00422154967   2189461.71676588
 vir6 397723.25775193743  2189397.241406191

[VERTICES]
;;Link           X-Coord            Y-Coord
;;-----------------------------------------
C76 394718.1414091823 2185388.0318080494
C132 394637.6464061863 2183602.978836347
C141 395423.55039344623 2183477.7708363975

[POLYGONS]
;;Name   X-Coord            Y-Coord
;;---------------------------------
S1  393281.5956051117  2182135.441493461
S1  393705.8334053905 2182147.5217598802
S1  393705.8334053905 2182147.1701216386
S1  393703.8639053907 2182147.1701216386
S1  393703.8639053907   2182146.18532164
S1  393703.8639053907 2182145.2005216377
S1  393701.8943053899 2182145.2005216377
S1  393701.8943053921 2182144.2157216393
S1  393701.8943053899  2182143.230921639
S1 393700.90950538946  2182143.230921639
S1  393700.0710053912  2182143.230921639
S1  393699.9247053891  2182143.230921639
S1  393699.9247053913 2182143.0654216385
S1  393699.9247053913 2182142.2462216397
S1  393699.9247053891 2182141.2614216395
S1  393698.3300053903 2182141.2614216395
S1 393697.95520538924 2182141.2614216395
S1 393697.95520539145 2182140.8374216384
S1 393697.95520539145 2182139.2918216386
S1  393696.5890053916 2182139.2918216386
S1  393695.9856053907 2182139.2918216386
S1  393695.9856053907  2182138.307021638
S1  393695.9856053907 2182138.1016216394
S1  393695.9856053907 2182137.3223216385
S1  393695.8000053919 2182137.3223216385
S1 393695.00080539024 2182137.3223216385
S1 393694.01610539085 2182137.3223216385
S1 393694.01610538864 2182135.3527216376
S1    393692.04650539   2182135.35272164
S1    393692.04650539 2182134.3679216397
S1 393692.04650539224  2182133.383121639
S1  393690.0769053914  2182133.383121639
S1  393690.0769053914 2182132.3984216377
S1  393690.0769053914 2182131.4136216394
S1  393689.0922053898 2182131.4136216394
S1 393688.10740539164  2182131.413621637
S1 393688.10740539164 2182129.4440216385
S1  393686.1378053908 2182129.4440216385
S1  393686.1378053908 2182128.4592216383
S1   393686.137805393  2182127.474521639
S1  393685.1530053904  2182127.474521639
S1 393684.16830539104  2182127.474521639
S1 393684.16830539104  2182126.489721638
S1 393684.16830539104 2182125.5049216403
S1  393682.1987053902 2182125.5049216403
S1  393682.1987053902 2182123.5353216394
S1  393680.2291053916 2182123.5353216394
S1  393680.2291053916   2182122.55062164
S1  393680.2291053916 2182121.5658216374
S1 393678.25960539177 2182121.5658216374
S1 393678.25960539177  2182120.581021639
S1 393678.25960539177  2182119.596221639
S1  393677.2748053914  2182119.596221639
S1   393676.290005391  2182119.596221639
S1   393676.290005391 2182117.6267216387
S1 393674.32050539117 2182117.6267216387
S1 393674.32050538895 2182116.6419216385
S1 393674.32050539117 2182115.6571216383
S1 393672.35090539034 2182115.6571216383
S1 393672.35090539034 2182113.6875216393
S1 393671.36610539217 2182113.6875216393
S1  393670.3813053895 2182113.6875216393
S1  393670.3813053917  2182112.702821638
S1  393670.3813053917 2182111.7180216373
S1 393668.41180539195 2182111.7180216396
S1 393668.41180538974 2182110.7332216394
S1 393668.41180538974 2182109.7484216387
S1  393666.4422053911 2182109.7484216387
S1  393666.4422053911 2182108.7636216385
S1  393666.4422053911  2182107.778921639
S1 393664.47270539135  2182107.778921639
S1  393664.4727053891  2182105.809321638
S1  393663.4879053887  2182105.809321638
S1  393662.5031053905  2182105.809321638
S1  393662.5031053905  2182104.824521638
S1  393662.5031053905 2182104.7155216387
S1  393662.5031053905 2182103.8398216385
S1 393660.64750539104 2182103.8398216385
S1  393660.5335053919 2182103.8398216385
S1  393660.5335053897  2182103.786021638
S1  393660.5335053897 2182101.8702216377
S1 393658.56400538987   2182101.87022164
S1 393658.56400538987 2182100.8854216393
S1  393658.5640053921  2182099.900621639
S1  393657.5792053917  2182099.900621639
S1 393656.59440539125  2182099.900621639
S1 393656.59440539125 2182098.9159216397
S1 393656.59440539125 2182097.9311216394
S1  393654.6249053915 2182097.9311216394
S1 393654.62490538927 2182096.9463216388
S1  393654.6249053915 2182095.9615216386
S1 393652.65530539065 2182095.9615216386
S1 393652.65530539065 2182093.9920216384
S1 393651.67050539027 2182093.9920216384
S1 393650.68570539204 2182093.9920216384
S1  393650.6857053898  2182093.007221638
S1  393650.6857053898   2182092.02242164
S1 393648.71620539005   2182092.02242164
S1 393648.71620539005  2182090.052821639
S1  393646.7466053892  2182090.052821639
S1  393646.7466053892   2182089.06812164
S1 393646.74660539144 2182088.0833216393
S1 393645.76180539106 2182088.0833216393
S1 393644.77710539167 2182088.0833216393
S1 393644.77710539167  2182087.098521639
S1  393644.7771053894 2182086.1137216385
S1 393642.80750539084 2182086.1137216385
S1 393642.80750539084  2182084.144221639
S1  393640.8379053922  2182084.144221639
S1    393640.83790539 2182083.1594216386
S1    393640.83790539  2182082.174621638
S1  393639.8532053906  2182082.174621638
S1  393638.8684053902  2182082.174621638
S1  393638.8684053924 2182081.1898216377
S1  393638.8684053902 2182080.2050216394
S1 393636.89880539157 2182080.2050216394
S1 393636.89880538936 2182078.2355216397
S1  393634.9293053918 2182078.2355216397
S1  393634.9293053918  2182077.250721639
S1  393634.9293053918  2182076.265921639
S1  393633.9445053914  2182076.265921639
S1 393632.95970539097  2182076.265921639
S1 393632.95970539097  2182075.281121638
S1 393632.95970538876  2182074.296421639
S1 393630.99010539014  2182074.296421639
S1 393630.99010539014 2182072.3268216383
S1 393629.02060539037 2182072.3268216383
S1 393629.02060539037 2182071.3420216376
S1 393629.02060539037 2182070.3572216397
S1 393627.05100539175 2182070.3572216374
S1 393627.05100539175  2182069.372521638
S1 393627.05100539175 2182068.3877216396
S1  393626.0662053913 2182068.3877216396
S1  393625.0815053897 2182068.3877216396
S1  393625.0815053919 2182067.4029216394
S1  393625.0815053919 2182066.4181216387
S1 393623.11190539115 2182066.4181216387
S1 393623.11190539115  2182064.448621639
S1  393621.1423053903  2182064.448621639
S1  393621.1423053903  2182063.463821639
S1  393621.1423053903  2182062.479021638
S1 393620.15760539094  2182062.479021638
S1  393619.3877053906  2182062.479021638
S1  393619.1728053905  2182062.479021638
S1  393619.1728053905 2182062.2057216377
S1  393619.1728053905 2182060.5094216396
S1  393617.8389053892 2182060.5094216396
S1  393617.2032053919 2182060.5094216396
S1 393617.20320538967 2182059.7011216385
S1  393617.2032053919  2182059.524721638
S1 393617.20320538967   2182058.53992164
S1 393616.29010538995   2182058.53992164
S1  393615.2337053899   2182058.53992164
S1  393615.2337053899 2182057.5551216393
S1  393615.2337053899  2182057.211621638
S1  393615.2337053899  2182056.570321639
S1  393614.5415053915  2182056.570321639
S1 393613.92060538975  2182056.570321639
S1  393612.6076053906  2182056.570321639
S1 393611.29450539046  2182056.570321639
S1 393611.29450538824 2182054.6008216394
S1  393609.3250053907 2182054.6008216394
S1  393609.3250053907 2182053.6160216387
S1  393609.3250053907 2182052.6312216385
S1 393607.35540539207 2182052.6312216385
S1 393607.35540538986  2182051.646421638
S1 393607.35540539207 2182050.6616216376
S1  393606.3706053916 2182050.6616216376
S1    393605.38590539 2182050.6616216376
S1    393605.38590539   2182048.69212164
S1 393603.41630539147   2182048.69212164
S1 393603.41630539147 2182047.7073216396
S1 393603.41630539147 2182046.7225216394
S1   393602.431505391 2182046.7225216394
S1 393601.44670539064 2182046.7225216394
S1 393601.44670539064 2182044.7530216393
S1  393599.4772053908 2182044.7530216393
S1  393599.4772053886  2182043.768221639
S1  393599.4772053908 2182042.7834216384
S1    393597.50760539 2182042.7834216384
S1    393597.50760539  2182041.798621638
S1    393597.50760539   2182040.81382164
S1  393596.5228053918   2182040.81382164
S1  393595.5381053902 2182040.8138216375
S1   393595.538105388  2182038.844321638
S1  393593.5685053894  2182038.844321638
S1  393593.5685053916 2182037.8595216377
S1  393593.5685053916 2182036.8747216393
S1 393591.59890539077 2182036.8747216393
S1 393591.59890539077  2182035.889921639
S1 393591.59890539077 2182034.9052216397
S1   393589.629405391 2182034.9052216397
S1   393589.629405391  2182032.935621639
S1 393588.64460539055  2182032.935621639
S1 393587.65980539017  2182032.935621639
S1 393587.65980539017  2182031.950821638
S1 393587.65980539017  2182030.966021638
S1 393585.69030539034  2182030.966021638
S1 393585.69030539034 2182029.9813216385
S1 393585.69030539034 2182028.9965216382
S1  393583.7207053917 2182028.9965216382
S1  393583.7207053917 2182027.0269216397
S1 393582.73590539134 2182027.0269216397
S1 393581.75120539195 2182027.0269216397
S1 393581.75120539195  2182025.713921638
S1 393581.75120538974  2182024.400821638
S1 393581.75120539195 2182023.0878216387
S1  393579.7816053911 2182023.0878216387
S1  393579.7816053911 2182022.1030216385
S1  393579.7816053911 2182021.1182216383
S1  393577.8120053903 2182021.1182216383
S1  393577.8120053903  2182019.148721638
S1  393576.8273053909  2182019.148721638
S1  393575.8425053905  2182019.148721638
S1  393575.8425053905  2182018.163921638
S1  393575.8425053905 2182017.1791216373
S1  393573.8729053919 2182017.1791216396
S1  393573.8729053897   2182015.20962164
S1 393571.90340538986   2182015.20962164
S1 393571.90340538986 2182014.2248216392
S1  393571.9034053921  2182013.240021639
S1  393569.9338053913  2182013.240021639
S1 393569.93380538904  2182012.255221639
S1  393569.9338053913  2182011.270421638
S1 393568.94900539087  2182011.270421638
S1  393567.9642053905  2182011.270421638
S1  393567.9642053905 2182009.3009216385
S1 393565.99470539065 2182009.3009216385
S1 393565.99470539065  2182008.316121638
S1 393565.99470539065 2182007.3313216376
S1  393564.0251053898   2182007.33132164
S1  393564.0251053898 2182006.3465216393
S1  393564.0251053898  2182005.361821638
S1 393563.04030539165   2182005.36182164
S1 393562.05560539226  2182005.361821638
S1 393562.05560539005 2182003.3922216394
S1 393562.05560539005 2182001.4226216385
S1  393560.0860053892 2182001.4226216385
S1 393560.08600539144 2181999.4531216384
S1  393558.1164053906 2181999.4531216384
S1  393558.1164053906  2181998.468321638
S1  393558.1164053906  2181997.483521638
S1  393557.1317053912  2181997.483521638
S1 393556.14690539084  2181997.483521638
S1 393556.14690539084 2181996.4987216396
S1 393556.14690539084  2181995.514021638
S1    393554.17730539  2181995.514021638
S1    393554.17730539 2181994.5292216376
S1  393554.1773053922 2181993.5444216393
S1  393552.2078053902 2181993.5444216393
S1  393552.2078053902 2181991.5748216384
S1   393551.223005392 2181991.5748216384
S1  393550.2382053916 2181991.5748216384
S1 393550.23820538935  2181990.590121639
S1 393550.23820538935  2181989.873921638
S1  393550.2382053916 2181989.6053216388
S1  393549.8966053894 2181989.6053216388
S1  393548.2686053908 2181989.6053216388
S1  393548.2686053908 2181988.6205216385
S1  393548.2686053908  2181988.325121639
S1  393548.2686053908  2181987.635721638
S1  393547.3919053915  2181987.635721638
S1 393546.29910539096  2181987.635721638
S1 393546.29910539096   2181986.77632164
S1 393546.29910539096  2181985.666221638
S1  393545.3143053928  2181985.666221638
S1  393544.8873053901  2181985.666221638
S1 393544.32950539235  2181985.666221638
S1 393544.32950539014 2181985.2275216384
S1 393544.32950539014   2181984.68142164
S1 393544.32950539014 2181983.6966216397
S1  393542.3827053909 2181983.6966216397
S1 393542.36000539036 2181983.6966216397
S1 393542.36000538815  2181983.678721639
S1 393542.36000539036  2181981.727021639
S1 393542.36000539036  2181979.757521639
S1 393540.39040539175  2181979.757521639
S1 393540.39040538954 2181978.7727216384
S1 393540.39040539175  2181977.787921638
S1 393539.40560539137  2181977.787921638
S1  393538.4208053909  2181977.787921638
S1  393538.4208053909 2181976.8031216376
S1  393538.4208053909  2181975.818421638
S1 393536.45130539115  2181975.818421638
S1 393536.45130539115  2181973.848821637
S1  393534.4817053903 2181973.8488216395
S1  393534.4817053903 2181972.8640216393
S1  393534.4817053903 2181971.8792216387
S1  393532.5122053905 2181971.8792216387
S1  393532.5122053905  2181969.909721639
S1  393531.5274053901  2181969.909721639
S1 393530.54260539194  2181969.909721639
S1 393530.54260538967  2181968.924921639
S1 393530.54260538967  2181967.940121638
S1  393528.5730053911  2181967.940121638
S1  393528.5730053911 2181966.9554216387
S1  393528.5730053911 2181965.9706216385
S1  393526.6035053913 2181965.9706216385
S1  393526.6035053913   2181964.00102164
S1 393524.63390539045 2181964.0010216376
S1 393524.63390539045 2181962.6880216384
S1 393524.63390539045 2181961.3749216385
S1 393524.63390539045 2181960.0619216394
S1  393523.6491053923 2181960.0619216394
S1  393522.6644053907 2181960.0619216394
S1  393522.6644053907 2181958.0923216385
S1 393520.69480539206 2181958.0923216385
S1 393520.69480538985  2181957.107621639
S1 393520.69480539206 2181956.1228216384
S1 393518.72520539124 2181956.1228216384
S1 393518.72520539124  2181954.153221638
S1 393517.74050538964  2181954.153221638
S1 393516.75570539146   2181954.15322164
S1  393516.7557053892 2181953.1684216396
S1  393516.7557053892  2181952.183721638
S1 393514.78610539064  2181952.183721638
S1 393514.78610539064   2181951.19892164
S1 393514.78610539064 2181950.2141216393
S1  393513.8013053902 2181950.2141216393
S1  393512.8166053908 2181950.2141216393
S1  393512.8166053908  2181949.229321639
S1  393512.8166053908 2181948.2445216384
S1    393510.84700539 2181948.2445216384
S1  393510.8470053922 2181946.2750216387
S1 393508.87740538915 2181946.2750216387
S1  393508.8774053914 2181945.2902216385
S1  393508.8774053914  2181944.305421638
S1 393507.89270539203  2181944.305421638
S1  393506.9079053916  2181944.305421638
S1  393506.9079053916   2181943.32062164
S1  393506.9079053916  2181942.335921638
S1 393504.93830539077  2181942.335921638
S1 393504.93830539077 2181940.3663216396
S1 393504.93830539077 2181938.3967216387
S1  393502.9688053932 2181938.3967216387
S1   393502.968805391 2181937.4120216393
S1   393502.968805391  2181936.427221639
S1 393500.99920538795  2181936.427221639
S1  393500.9992053924  2181934.457621638
S1   393500.014405392  2181934.457621638
S1 393499.02960538934  2181934.457621638
S1 393499.02960539155   2181933.47282164
S1 393499.02960539155  2181932.488121638
S1  393497.0601053918  2181932.488121638
S1  393497.0601053918  2181931.503321638
S1  393497.0601053895 2181930.5185216395
S1 393495.09050539095 2181930.5185216395
S1 393495.09050539095 2181928.5489216386
S1  393494.1057053883 2181928.5489216386
S1  393493.1210053911 2181928.5489216386
S1  393493.1210053911 2181927.5642216397
S1  393493.1210053911  2181926.579421639
S1  393491.1514053903  2181926.579421639
S1  393491.1514053903  2181924.609821638
S1 393489.18180538947  2181924.609821638
S1 393489.18180538947  2181923.625021638
S1 393489.18180538947 2181922.6403216384
S1  393487.2123053897 2181922.6403216384
S1  393487.2123053919   2181921.65552164
S1  393487.2123053897   2181920.67072164
S1  393486.2275053915   2181920.67072164
S1  393485.2427053911   2181920.67072164
S1  393485.2427053911  2181918.701121639
S1  393485.2427053911 2181916.7316216393
S1  393483.2732053913 2181916.7316216393
S1  393483.2732053913 2181915.7468216387
S1  393483.2732053913 2181914.7620216385
S1  393481.3036053905 2181914.7620216385
S1  393481.3036053905  2181912.792521639
S1 393480.31880539004  2181912.792521639
S1  393480.0049053906  2181912.792521639
S1 393479.33400539187  2181912.792521639
S1 393479.33400538965  2181911.807721638
S1 393479.33400538965  2181910.822921638
S1  393477.3645053898   2181910.82292164
S1  393477.3645053898 2181909.8381216396
S1  393477.3645053898 2181908.8533216394
S1 393475.39490539127 2181908.8533216394
S1 393475.39490539127   2181907.86862164
S1 393475.39490539127  2181906.883821639
S1  393474.4101053908  2181906.883821639
S1 393473.42540539143  2181906.883821639
S1 393473.42540539143 2181904.9142216383
S1  393471.4558053906 2181904.9142216383
S1  393471.4558053906  2181903.929421638
S1  393471.4558053906 2181902.9447216387
S1  393470.4710053902 2181902.9447216387
S1  393469.4862053898 2181902.9447216387
S1  393469.4862053898  2181900.975121638
S1    393467.51670539  2181900.975121638
S1    393467.51670539 2181899.6621216387
S1    393467.51670539 2181898.3490216387
S1    393467.51670539 2181897.0360216396
S1  393465.5471053892 2181897.0360216396
S1  393465.5471053914 2181895.0664216387
S1  393463.5776053916 2181895.0664216387
S1 393463.57760538935 2181894.0816216385
S1 393463.57760538935  2181893.096921639
S1  393462.5928053912  2181893.096921639
S1  393461.6080053908  2181893.096921639
S1  393461.6080053908 2181892.1121216384
S1  393461.6080053908  2181891.127321638
S1  393459.6384053922  2181891.127321638
S1 393459.63840538997 2181889.1577216396
S1 393457.66890539014 2181889.1577216396
S1 393457.66890539014  2181888.173021638
S1  393457.6689053924 2181887.1882216395
S1 393456.68410538975 2181887.1882216376
S1  393455.6993053893 2181887.1882216395
S1  393455.6993053893 2181886.2034216393
S1  393455.6993053893  2181885.218621639
S1 393453.72980539175  2181885.218621639
S1 393453.72980539175  2181883.249121639
S1  393451.7602053909  2181883.249121639
S1  393451.7602053909 2181882.2643216387
S1  393451.7602053909  2181881.279521638
S1 393449.79070538894  2181881.279521638
S1 393449.79070539336 2181879.3099216395
S1  393448.8059053907  2181879.309921637
S1  393447.8211053903  2181879.309921637
S1  393447.8211053903 2181877.9969216385
S1  393447.8211053903 2181876.6839216393
S1  393447.8211053903  2181875.599021639
S1  393447.8211053903  2181875.370821639
S1  393447.6097053904  2181875.370821639
S1  393445.8515053917  2181875.370821639
S1  393445.8515053895 2181874.3860216388
S1  393445.8515053895 2181873.4733216385
S1  393445.8515053895 2181873.4013216393
S1  393445.7848053909 2181873.4013216393
S1 393443.88200538966 2181873.4013216393
S1 393443.88200538966 2181871.4317216384
S1  393442.8972053915 2181871.4317216384
S1  393441.9124053911 2181871.4317216384
S1  393441.9124053911   2181870.44692164
S1  393441.9124053911   2181869.46212164
S1 393439.94290538906   2181869.46212164
S1  393439.9429053913  2181867.702621639
S1  393439.9429053913   2181867.49262164
S1  393439.6176053911  2181867.492621638
S1 393437.97330538824  2181867.492621638
S1 393437.97330539045  2181866.507821637
S1 393437.97330539045  2181866.430821638
S1 393437.97330539045 2181865.5230216393
S1 393436.98850539007 2181865.5230216393
S1 393436.56760538963 2181865.5230216393
S1  393436.0037053919 2181865.5230216393
S1  393436.0037053919 2181865.1589216385
S1  393436.0037053896 2181864.5382216386
S1  393436.0037053919  2181863.553521639
S1 393434.03420538985  2181863.553521639
S1 393434.03420539206  2181862.568721639
S1 393434.03420539206 2181861.5839216383
S1 393432.06460539124 2181861.5839216383
S1 393432.06460539124 2181859.6143216398
S1 393431.07980539085 2181859.6143216398
S1 393430.09510538925 2181859.6143216398
S1 393430.09510538925 2181858.6296216385
S1 393430.09510538925  2181857.644821638
S1 393428.12550539064   2181857.64482164
S1 393428.12550539064  2181855.675221639
S1 393428.12550539064 2181853.7057216372
S1  393426.1559053898 2181853.7057216396
S1   393426.155905392  2181852.720921639
S1  393426.1559053898 2181851.7361216387
S1  393425.1712053904 2181851.7361216387
S1    393424.18640539 2181851.7361216387
S1    393424.18640539  2181849.766521638
S1  393422.2168053914  2181849.766521638
S1 393422.21680538915 2181848.7818216383
S1 393422.21680538915  2181847.797021638
S1  393420.2473053916  2181847.797021638
S1  393420.2473053894   2181846.81222164
S1  393420.2473053894 2181845.8274216396
S1  393419.2625053912 2181845.8274216396
S1 393418.27770539076 2181845.8274216396
S1 393418.27770539076  2181844.842621639
S1 393418.27770539076 2181843.8579216395
S1 393416.30810538994 2181843.8579216395
S1 393416.30810538994  2181841.888321639
S1 393414.33860539016  2181841.888321639
S1 393414.33860539016 2181840.9035216384
S1 393414.33860539016  2181839.918721638
S1 393412.36900539155  2181839.918721638
S1 393412.36900539155  2181837.949221638
S1 393411.38420539116  2181837.949221638
S1  393410.4708053906  2181837.949221638
S1  393410.3995053918  2181837.949221638
S1 393410.39950538956 2181837.7980216374
S1  393410.3995053918 2181835.9796216395
S1 393410.39950538956 2181834.0101216375
S1 393408.61180539196   2181834.01012164
S1 393408.42990539095   2181834.01012164
S1 393408.42990538874 2181833.6247216393
S1 393408.42990539095 2181833.0253216396
S1 393408.42990539095  2181832.040521639
S1  393407.6823053893  2181832.040521639
S1  393406.4603053901  2181832.040521639
S1 393406.46030539233 2181830.0710216393
S1 393405.47560539073 2181830.0710216393
S1  393404.4908053903 2181830.0710216393
S1 393404.49080539256 2181829.0862216386
S1  393404.4908053903 2181828.1014216384
S1 393402.52120538946 2181828.1014216384
S1 393402.52120539173   2181826.13182164
S1  393400.5517053919   2181826.13182164
S1  393400.5517053919 2181825.1471216404
S1  393400.5517053919  2181824.162321638
S1  393399.5669053915  2181824.162321638
S1  393398.5821053911  2181824.162321638
S1  393398.5821053911 2181822.1927216393
S1 393396.61250539025 2181822.1927216393
S1 393396.61250539025 2181821.2079216386
S1 393396.61250539025 2181820.2232216373
S1  393394.6430053905 2181820.2232216373
S1  393394.6430053905  2181819.238421639
S1  393394.6430053905 2181818.2536216388
S1 393392.67340538965 2181818.2536216388
S1 393392.67340539186  2181816.284021638
S1 393392.67340538965   2181814.31452164
S1  393391.6886053915 2181814.3145216377
S1  393390.7039053921 2181814.3145216377
S1  393390.7039053898   2181813.32972164
S1  393390.7039053898  2181812.344921639
S1 393388.73430538905  2181812.344921639
S1 393388.73430539126  2181811.360121639
S1 393388.73430539126  2181810.375421637
S1 393386.76470539044  2181810.375421637
S1 393386.76470539044 2181808.4058216386
S1 393385.78000539105 2181808.4058216386
S1  393384.7952053906 2181808.4058216386
S1  393384.7952053906   2181806.43622164
S1  393384.7952053906  2181804.466721638
S1  393382.8256053898  2181804.466721638
S1  393382.8256053898 2181803.4819216398
S1 393382.82560539205 2181802.4971216395
S1  393381.8408053916 2181802.4971216395
S1  393380.8561053922  2181802.497121637
S1    393380.85610539  2181801.512321639
S1    393380.85610539 2181801.0170216393
S1    393380.85610539   2181800.52762164
S1  393379.8190053913   2181800.52762164
S1  393378.8865053892   2181800.52762164
S1  393378.8865053914 2181800.0875216387
S1  393378.8865053892  2181798.558021639
S1  393378.8865053914  2181796.588421638
S1 393376.91690539056  2181796.588421638
S1 393376.91690539056 2181795.6037216387
S1 393376.91690539056  2181794.618921638
S1  393374.9474053908  2181794.618921638
S1  393374.9474053908 2181792.6493216394
S1 393373.96260539035 2181792.6493216394
S1 393372.97780538996 2181792.6493216376
S1 393372.97780538996 2181791.3363216384
S1 393372.97780538996  2181790.023221638
S1 393372.97780538996  2181788.710221639
S1 393371.00830539013  2181788.710221639
S1 393371.00830539013 2181787.7254216387
S1 393371.00830539013  2181786.740621638
S1  393370.3165053914  2181786.740621638
S1   393370.788705391 2181789.1590216374
S1 393373.74650538916  2181796.201321638
S1  393355.9247053903 2181803.3790216385
S1   393341.021005391 2181812.3695216393
S1  393336.5683053905 2181859.0236216374
S1  393310.9246053894  2181888.379021638
S1  393306.5684053894  2181908.147121638
S1 393321.56840539153  2181928.379021638
S1 393325.92470539035 2181949.0236216392
S1 393328.74650538934 2181956.2013216377
S1 393335.74100539094 2181961.8019216387
S1  393325.9700053905  2181978.424221637
S1 393321.52310538915  2181992.890721638
S1  393336.5230053903  2182013.424221639
S1 393340.97000539047  2182048.978421638
S1 393347.72160539066   2182072.62222164
S1 393340.64770538977 2182110.1332216375
S1 393320.96990539174 2182118.4242216386
S1  393301.5231053915 2182133.9784216373
S1  393281.5956051117  2182135.441493461
S2  394698.6549171459 2182154.0942678778
S2  394808.2868171459 2181850.7904678774
S2  394800.8247171459 2181844.1236678776
S2 394788.15291714587  2181829.941567878
S2  394751.1058171459 2181838.5609678775
S2  394744.8143171459 2181852.2694678777
S2  394731.1058171459 2181858.5609678775
S2  394721.2465171459 2181863.9185678777
S2  394711.3872171459 2181858.5609678775
S2  394701.1058171459 2181853.8416678775
S2  394682.7034171459 2181843.8416678775
S2  394676.1058171459 2181848.5609678775
S2  394669.3089171459 2181863.3692678777
S2  394651.6258171459 2181864.4239678774
S2  394643.0269171459 2181854.7999678776
S2  394609.0407171459 2181848.4559678775
S2  394592.1387171459 2181821.8812678778
S2  394562.9539171459 2181812.8687678776
S2  394556.3872171459 2181798.5609678775
S2  394541.1058171459 2181778.8416678775
S2  394536.3872171459 2181748.5609678775
S2  394517.0268171459 2181742.5819678777
S2  394529.5042171459 2181688.9539678777
S2  394540.6348171459 2181688.2911678776
S2  394559.4487171459 2181695.0416678777
S2  394566.3872171459 2181688.8416678775
S2  394571.1604171459 2181637.9798678774
S2  394596.1058171459 2181615.6910678777
S2  394591.3872171459 2181588.5609678775
S2  394578.5715171459 2181564.9769678777
S2  394586.1058171459 2181548.5609678775
S2  394591.3872171459 2181538.8416678775
S2  394598.6923171459 2181515.1844678777
S2  394616.6682171459 2181499.1236678776
S2  394619.0014171459 2181491.5680678776
S2  394628.3333171459 2181461.3477678774
S2  394649.3713171459  2181444.086567878
S2  394523.6579171459 2181400.0668678777
S2  394418.8835171459 2181363.3791678776
S2  394248.6481171459 2181301.2028678777
S2  394224.4009171459 2181289.6108678775
S2  394211.9190171459 2181272.9111678777
S2  394202.6806171459 2181232.1443678774
S2  394197.4106171459 2181197.5098678777
S2 394172.41761714587 2181155.7294678777
S2  394156.4968171459 2181126.7495678775
S2  394152.8082171459 2181044.1623678776
S2  394152.6022171459 2181039.5490678777
S2  394156.7677171459 2181019.9457678776
S2 394155.78161714587 2181003.3997678775
S2  394163.7465171459 2180981.2012678776
S2  394166.1511171459 2180938.6060678777
S2  394181.1511171459  2180924.707167878
S2  394153.6523171459 2180885.5250678775
S2  394121.3419171459 2180898.7965678778
S2  394113.7465171459 2180901.2012678776
S2 394106.31581714586 2180908.0860678777
S2 394099.36741714587 2180930.0330678774
S2  394066.0516171459 2180960.9019678775
S2  394029.7261171459 2180994.5594678777
S2  394001.1511171459 2181003.6060678777
S2  393981.3419171459 2181018.7965678778
S2  393966.1511171459 2181023.6060678777
S2  393956.3419171459 2181028.7965678778
S2  393936.6132171459 2181038.1068678778
S2  393927.6950171459 2181047.7320678774
S2 393900.29011714587 2181069.2835678775
S2  393861.1511171459 2181078.6060678777
S2  393848.7131171459 2181085.1881678775
S2  393843.7465171459 2181111.2012678776
S2  393846.3872171459 2181113.5609678775
S2  393851.1058171459 2181166.2232678775
S2  393808.4840171459  2181204.305567878
S2  393779.8015171459 2181255.6251678774
S2 393750.32201714587 2181278.5609678775
S2  393741.3872171459 2181268.5609678775
S2  393716.5616171459 2181250.5433678776
S2  393703.7465171459 2181236.2012678776
S2 393694.92251714587  2181233.034767878
S2  393679.5926171459 2181233.9490678776
S2 393655.42501714587 2181247.0812678775
S2  393656.5944171459 2181247.0812678775
S2  393656.5944171459 2181249.0508678774
S2  393656.5944171459 2181251.0203678776
S2  393657.5792171459 2181251.0203678776
S2  393658.5640171459 2181251.0203678776
S2  393658.5640171459  2181252.005167878
S2  393658.5640171459 2181252.9899678775
S2  393660.5335171459 2181252.9899678775
S2  393660.5335171459 2181254.9595678775
S2  393660.5335171459 2181256.9290678776
S2  393662.5031171459 2181256.9290678776
S2  393662.5031171459  2181257.913867878
S2  393662.5031171459 2181258.8986678775
S2  393663.4879171459 2181258.8986678775
S2  393664.4726171459 2181258.8986678775
S2  393664.4726171459 2181259.8834678777
S2  393664.4726171459 2181260.8681678777
S2  393666.4422171459 2181260.8681678777
S2  393666.4422171459 2181262.8377678776
S2  393666.4422171459 2181264.8073678776
S2  393668.4118171459 2181264.8073678776
S2  393668.4118171459 2181266.7768678777
S2  393670.3813171459 2181266.7768678777
S2  393670.3813171459 2181268.0899678776
S2  393670.3813171459 2181269.4029678777
S2  393670.3813171459  2181270.715967878
S2 393671.36611714587  2181270.715967878
S2  393672.3509171459  2181270.715967878
S2  393672.3509171459 2181272.6855678777
S2  393674.3204171459 2181272.6855678777
S2  393674.3204171459 2181273.6703678775
S2  393674.3204171459 2181274.6551678777
S2  393676.2900171459 2181274.6551678777
S2  393676.2900171459  2181276.624667878
S2  393676.2900171459 2181278.5942678778
S2  393677.2748171459 2181278.5942678778
S2  393678.2596171459 2181278.5942678778
S2  393678.2596171459 2181279.5790678775
S2  393678.2596171459 2181280.5637678774
S2  393680.2291171459 2181280.5637678774
S2  393680.2291171459  2181282.533367878
S2  393680.2291171459  2181284.502967878
S2  393682.1987171459  2181284.502967878
S2  393682.1987171459 2181285.4876678777
S2  393682.1987171459 2181286.4724678774
S2  393684.1682171459 2181286.4724678774
S2  393684.1682171459 2181288.4420678774
S2  393684.1682171459 2181290.4115678775
S2  393685.1530171459 2181290.4115678775
S2  393686.1378171459 2181290.4115678775
S2  393686.1378171459 2181291.3963678777
S2  393686.1378171459 2181292.3811678775
S2  393688.1074171459 2181292.3811678775
S2  393688.1074171459 2181293.3659678777
S2  393688.1074171459 2181294.3507678774
S2  393689.0921171459 2181294.3507678774
S2 393690.07691714587 2181294.3507678774
S2 393690.07691714587 2181296.3202678775
S2 393690.07691714587 2181298.2898678775
S2  393692.0465171459 2181298.2898678775
S2  393692.0465171459 2181299.2746678777
S2  393692.0465171459 2181300.2593678776
S2  393694.0160171459 2181300.2593678776
S2  393694.0160171459 2181302.2289678776
S2  393694.0160171459 2181304.1985678775
S2  393695.0008171459 2181304.1985678775
S2  393695.9856171459 2181304.1985678775
S2  393695.9856171459 2181305.1832678774
S2  393695.9856171459 2181306.1680678776
S2  393697.9552171459 2181306.1680678776
S2  393697.9552171459 2181308.1376678776
S2  393697.9552171459 2181310.1071678777
S2  393699.9247171459 2181310.1071678777
S2  393699.9247171459 2181312.0767678777
S2  393700.9095171459 2181312.0767678777
S2 393701.89431714587 2181312.0767678777
S2 393701.89431714587 2181313.0615678774
S2 393701.89431714587 2181314.0463678776
S2  393703.8638171459 2181314.0463678776
S2  393703.8638171459 2181315.3593678777
S2  393703.8638171459  2181316.672367878
S2  393703.8638171459 2181317.9854678777
S2  393705.8334171459 2181317.9854678777
S2  393705.8334171459  2181319.954967878
S2  393707.8030171459  2181319.954967878
S2  393707.8030171459  2181321.924567878
S2  393707.8030171459 2181323.8941678777
S2 393708.78771714587 2181323.8941678777
S2  393709.7725171459 2181323.8941678777
S2  393709.7725171459 2181324.8788678776
S2  393709.7725171459 2181325.8636678774
S2  393711.7421171459 2181325.8636678774
S2  393711.7421171459  2181327.833267878
S2  393713.7116171459  2181327.833267878
S2  393713.7116171459 2181329.1462678774
S2  393713.7116171459  2181330.459367878
S2  393713.7116171459 2181331.7723678774
S2  393715.6812171459 2181331.7723678774
S2  393715.6812171459 2181332.7571678776
S2  393715.6812171459  2181333.741967878
S2  393716.6660171459  2181333.741967878
S2  393717.6508171459  2181333.741967878
S2  393717.6508171459 2181335.7114678775
S2  393717.6508171459 2181337.6810678774
S2  393719.6203171459 2181337.6810678774
S2  393719.6203171459 2181338.6658678777
S2  393719.6203171459 2181339.6505678776
S2  393721.5899171459 2181339.6505678776
S2  393721.5899171459 2181341.6201678775
S2  393721.5899171459 2181343.5897678775
S2  393722.5747171459 2181343.5897678775
S2  393723.5594171459 2181343.5897678775
S2  393723.5594171459 2181344.5744678774
S2  393723.5594171459 2181345.5592678776
S2  393725.5290171459 2181345.5592678776
S2  393725.5290171459 2181347.5288678776
S2  393727.4986171459 2181347.5288678776
S2  393727.4986171459 2181348.8418678776
S2  393727.4986171459 2181350.1549678775
S2  393727.4986171459 2181351.4679678776
S2  393728.4833171459 2181351.4679678776
S2  393729.4681171459 2181351.4679678776
S2  393729.4681171459 2181353.4375678776
S2  393731.4377171459 2181353.4375678776
S2  393731.4377171459 2181355.4070678777
S2  393731.4377171459 2181357.3766678777
S2  393733.4072171459 2181357.3766678777
S2  393733.4072171459 2181358.3614678774
S2  393733.4072171459  2181359.346167878
S2  393734.3920171459  2181359.346167878
S2  393735.3768171459  2181359.346167878
S2  393735.3768171459 2181360.3309678775
S2  393735.3768171459 2181361.3157678777
S2  393737.3464171459 2181361.3157678777
S2  393737.3464171459 2181363.2853678777
S2  393737.3464171459  2181365.254867878
S2 393739.31591714587  2181365.254867878
S2 393739.31591714587 2181366.2396678776
S2 393739.31591714587 2181367.2244678778
S2  393740.3007171459 2181367.2244678778
S2  393741.2855171459 2181367.2244678778
S2  393741.2855171459 2181369.1939678774
S2  393741.2855171459  2181371.163567878
S2  393743.2550171459  2181371.163567878
S2  393743.2550171459 2181372.1483678776
S2  393743.2550171459  2181373.133167878
S2  393745.2246171459  2181373.133167878
S2  393745.2246171459 2181375.1026678775
S2  393745.2246171459 2181377.0722678774
S2  393746.2094171459 2181377.0722678774
S2  393747.1942171459 2181377.0722678774
S2  393747.1942171459 2181378.0570678776
S2  393747.1942171459 2181379.0417678775
S2  393749.1637171459 2181379.0417678775
S2  393749.1637171459 2181381.0113678775
S2 393751.13331714587 2181381.0113678775
S2 393751.13331714587 2181382.3243678776
S2 393751.13331714587 2181383.6374678775
S2 393751.13331714587 2181384.9504678776
S2  393753.1028171459 2181384.9504678776
S2  393753.1028171459 2181386.9200678775
S2  393754.0876171459 2181386.9200678775
S2  393755.0724171459 2181386.9200678775
S2  393755.0724171459 2181388.2330678776
S2  393755.0724171459 2181389.5460678777
S2  393755.0724171459 2181390.8591678776
S2  393757.0420171459 2181390.8591678776
S2  393757.0420171459  2181391.843967878
S2  393757.0420171459 2181392.8286678777
S2  393759.0115171459 2181392.8286678777
S2  393759.0115171459 2181394.7982678777
S2  393759.9963171459 2181394.7982678777
S2  393760.9811171459 2181394.7982678777
S2  393760.9811171459 2181396.7678678776
S2  393760.9811171459 2181398.7373678777
S2 393762.95061714586 2181398.7373678777
S2 393762.95061714586 2181399.7221678775
S2 393762.95061714586 2181400.7069678777
S2  393764.9202171459 2181400.7069678777
S2  393764.9202171459  2181402.019967878
S2  393764.9202171459 2181403.3330678777
S2  393764.9202171459 2181404.6460678778
S2  393765.9050171459 2181404.6460678778
S2  393766.8898171459 2181404.6460678778
S2  393766.8898171459 2181406.6156678777
S2  393768.8593171459 2181406.6156678777
S2  393768.8593171459  2181408.585167878
S2  393768.8593171459  2181410.554767878
S2  393770.8289171459  2181410.554767878
S2  393770.8289171459 2181411.5395678775
S2  393770.8289171459 2181412.5242678775
S2  393772.7984171459 2181412.5242678775
S2  393772.7984171459 2181414.4938678774
S2  393773.7832171459 2181414.4938678774
S2 393774.76801714586 2181414.4938678774
S2 393774.76801714586 2181415.8068678775
S2 393774.76801714586 2181417.1199678774
S2 393774.76801714586 2181418.4329678775
S2  393776.7376171459 2181418.4329678775
S2  393776.7376171459 2181419.4177678777
S2  393776.7376171459 2181420.4025678774
S2  393777.7223171459 2181420.4025678774
S2  393778.7071171459 2181420.4025678774
S2  393778.7071171459 2181422.3720678776
S2  393778.7071171459 2181424.3416678775
S2  393780.6767171459 2181424.3416678775
S2  393780.6767171459 2181425.3264678777
S2  393780.6767171459 2181426.3112678775
S2  393782.6462171459 2181426.3112678775
S2  393782.6462171459 2181428.2807678776
S2  393783.6310171459 2181428.2807678776
S2  393784.6158171459 2181428.2807678776
S2  393784.6158171459 2181430.2503678775
S2  393784.6158171459 2181432.2198678777
S2  393786.5853171459 2181432.2198678777
S2  393786.5853171459 2181433.2046678774
S2  393786.5853171459 2181434.1894678776
S2 393788.55491714587 2181434.1894678776
S2 393788.55491714587 2181435.5024678777
S2 393788.55491714587 2181436.8155678776
S2 393788.55491714587 2181438.1285678777
S2  393790.5245171459 2181438.1285678777
S2  393790.5245171459 2181440.0981678776
S2  393791.5092171459 2181440.0981678776
S2  393792.4940171459 2181440.0981678776
S2  393792.4940171459  2181442.067667878
S2  393792.4940171459 2181444.0372678777
S2  393794.4636171459 2181444.0372678777
S2  393794.4636171459 2181445.0220678775
S2  393794.4636171459 2181446.0068678777
S2  393796.4331171459 2181446.0068678777
S2  393796.4331171459 2181446.9915678776
S2  393796.4331171459  2181447.976367878
S2  393797.4179171459  2181447.976367878
S2  393798.4027171459  2181447.976367878
S2  393798.4027171459 2181449.9459678777
S2  393798.4027171459 2181451.9154678774
S2 393800.37231714587 2181451.9154678774
S2 393800.37231714587 2181452.9002678776
S2 393800.37231714587  2181453.885067878
S2  393802.3418171459  2181453.885067878
S2  393802.3418171459  2181455.854667878
S2  393802.3418171459 2181457.8241678774
S2  393803.3266171459 2181457.8241678774
S2  393804.3114171459 2181457.8241678774
S2  393804.3114171459 2181458.8089678776
S2  393804.3114171459 2181459.7937678774
S2  393806.2809171459 2181459.7937678774
S2  393806.2809171459 2181461.7632678775
S2  393806.2809171459 2181463.7328678775
S2  393808.2505171459 2181463.7328678775
S2  393808.2505171459 2181464.7176678777
S2  393808.2505171459 2181465.7024678774
S2  393810.2201171459 2181465.7024678774
S2  393810.2201171459 2181467.6719678775
S2  393811.2048171459 2181467.6719678775
S2 393812.18961714586 2181467.6719678775
S2 393812.18961714586 2181468.9850678775
S2 393812.18961714586 2181470.2980678775
S2 393812.18961714586 2181471.6110678776
S2  393814.1592171459 2181471.6110678776
S2  393814.1592171459 2181473.5806678776
S2  393816.1287171459 2181473.5806678776
S2  393816.1287171459 2181475.5502678775
S2  393816.1287171459 2181477.5197678776
S2  393817.1135171459 2181477.5197678776
S2  393818.0983171459 2181477.5197678776
S2  393818.0983171459 2181478.5045678774
S2  393818.0983171459 2181479.4893678776
S2  393820.0679171459 2181479.4893678776
S2  393820.0679171459  2181480.474167878
S2  393820.0679171459 2181481.4588678777
S2  393821.0526171459 2181481.4588678777
S2  393822.0374171459 2181481.4588678777
S2  393822.0374171459 2181483.4284678777
S2  393822.0374171459 2181485.3980678776
S2 393824.00701714586 2181485.3980678776
S2 393824.00701714586 2181486.3827678775
S2 393824.00701714586 2181487.3675678778
S2  393825.9765171459 2181487.3675678778
S2  393825.9765171459 2181489.3371678777
S2  393825.9765171459  2181491.306667878
S2  393827.9461171459  2181491.306667878
S2  393827.9461171459 2181492.2914678776
S2  393827.9461171459  2181493.276267878
S2  393828.9309171459  2181493.276267878
S2  393829.9157171459  2181493.276267878
S2  393829.9157171459 2181495.2458678777
S2  393829.9157171459 2181497.2153678774
S2  393831.8852171459 2181497.2153678774
S2  393831.8852171459 2181498.2001678776
S2  393831.8852171459  2181499.184967878
S2  393833.8548171459  2181499.184967878
S2  393833.8548171459 2181501.1544678775
S2  393834.8396171459 2181501.1544678775
S2  393835.8243171459 2181501.1544678775
S2  393835.8243171459  2181502.467567878
S2  393835.8243171459 2181503.7805678775
S2  393835.8243171459  2181505.093667878
S2  393837.7939171459  2181505.093667878
S2  393837.7939171459 2181507.0631678775
S2  393839.7635171459 2181507.0631678775
S2  393839.7635171459 2181508.3762678774
S2  393839.7635171459 2181509.6892678775
S2  393839.7635171459 2181511.0022678776
S2  393840.7482171459 2181511.0022678776
S2  393841.7330171459 2181511.0022678776
S2  393841.7330171459 2181512.9718678775
S2  393843.7026171459 2181512.9718678775
S2  393843.7026171459 2181514.2848678776
S2  393843.7026171459 2181515.5979678775
S2  393843.7026171459 2181516.9109678776
S2  393845.6721171459 2181516.9109678776
S2  393845.6721171459 2181518.8805678776
S2  393847.6417171459 2181518.8805678776
S2  393847.6417171459 2181520.1935678776
S2  393847.6417171459 2181521.5065678777
S2  393847.6417171459 2181522.8196678776
S2  393848.6265171459 2181522.8196678776
S2  393849.6113171459 2181522.8196678776
S2  393849.6113171459  2181523.804467878
S2  393849.6113171459 2181524.7891678778
S2  393851.5808171459 2181524.7891678778
S2  393851.5808171459 2181526.7587678777
S2  393851.5808171459 2181528.7283678777
S2  393853.5504171459 2181528.7283678777
S2  393853.5504171459  2181530.697867878
S2 393854.53521714587  2181530.697867878
S2  393855.5199171459  2181530.697867878
S2  393855.5199171459 2181532.0109678777
S2  393855.5199171459  2181533.323967878
S2  393855.5199171459 2181534.6369678774
S2  393857.4895171459 2181534.6369678774
S2  393857.4895171459  2181536.606567878
S2  393859.4591171459  2181536.606567878
S2  393859.4591171459 2181537.9195678774
S2  393859.4591171459  2181539.232667878
S2  393859.4591171459 2181540.5456678774
S2  393860.4438171459 2181540.5456678774
S2 393861.42861714587 2181540.5456678774
S2 393861.42861714587  2181542.515267878
S2  393863.3982171459  2181542.515267878
S2  393863.3982171459 2181544.4847678775
S2  393863.3982171459 2181546.4543678774
S2  393865.3677171459 2181546.4543678774
S2  393865.3677171459 2181547.4391678777
S2  393865.3677171459 2181548.4239678774
S2  393866.3525171459 2181548.4239678774
S2  393867.3373171459 2181548.4239678774
S2  393867.3373171459 2181550.3934678775
S2  393867.3373171459 2181552.3630678775
S2  393869.3069171459 2181552.3630678775
S2  393869.3069171459 2181553.3478678777
S2  393869.3069171459 2181554.3325678776
S2  393871.2764171459 2181554.3325678776
S2  393871.2764171459 2181555.6456678775
S2  393871.2764171459 2181556.9586678776
S2  393871.2764171459 2181558.2717678775
S2  393872.2612171459 2181558.2717678775
S2 393873.24601714587 2181558.2717678775
S2 393873.24601714587 2181560.2412678776
S2  393875.2155171459 2181560.2412678776
S2  393875.2155171459 2181562.2108678776
S2  393875.2155171459 2181564.1803678777
S2  393877.1851171459 2181564.1803678777
S2  393877.1851171459 2181565.1651678775
S2  393877.1851171459 2181566.1499678777
S2  393878.1699171459 2181566.1499678777
S2  393879.1547171459 2181566.1499678777
S2  393879.1547171459 2181567.1347678774
S2  393879.1547171459 2181568.1195678776
S2  393881.1242171459 2181568.1195678776
S2  393881.1242171459 2181570.0890678777
S2  393881.1242171459 2181572.0586678777
S2  393883.0938171459 2181572.0586678777
S2  393883.0938171459 2181573.0434678774
S2  393883.0938171459  2181574.028167878
S2  393885.0633171459  2181574.028167878
S2  393885.0633171459 2181575.9977678778
S2  393885.0633171459 2181577.9673678777
S2  393886.0481171459 2181577.9673678777
S2  393887.0329171459 2181577.9673678777
S2  393887.0329171459 2181578.9520678776
S2  393887.0329171459  2181579.936867878
S2  393889.0025171459  2181579.936867878
S2  393889.0025171459  2181581.906467878
S2  393889.0025171459 2181583.8759678775
S2  393890.9720171459 2181583.8759678775
S2  393890.9720171459 2181584.8607678777
S2  393890.9720171459 2181585.8455678774
S2 393891.95681714587 2181585.8455678774
S2  393892.9416171459 2181585.8455678774
S2  393892.9416171459  2181587.815167878
S2  393892.9416171459 2181589.7846678775
S2  393894.9111171459 2181589.7846678775
S2  393894.9111171459 2181591.7542678774
S2  393896.8807171459 2181591.7542678774
S2  393896.8807171459 2181593.0672678775
S2  393896.8807171459 2181594.3803678774
S2  393896.8807171459 2181595.6933678775
S2  393898.8503171459 2181595.6933678775
S2  393898.8503171459 2181596.6781678777
S2  393898.8503171459 2181597.6629678775
S2  393899.8350171459 2181597.6629678775
S2  393900.8198171459 2181597.6629678775
S2  393900.8198171459 2181599.6324678776
S2  393900.8198171459 2181601.6020678775
S2  393902.7894171459 2181601.6020678775
S2  393902.7894171459 2181602.5868678777
S2  393902.7894171459 2181603.5715678777
S2  393904.7589171459 2181603.5715678777
S2  393904.7589171459 2181605.5411678776
S2  393904.7589171459 2181607.5107678776
S2  393905.7437171459 2181607.5107678776
S2  393906.7285171459 2181607.5107678776
S2  393906.7285171459 2181608.4954678775
S2  393906.7285171459 2181609.4802678777
S2  393908.6981171459 2181609.4802678777
S2  393908.6981171459 2181611.4498678776
S2  393908.6981171459 2181613.4193678778
S2  393909.6828171459 2181613.4193678778
S2 393910.66761714587 2181613.4193678778
S2 393910.66761714587 2181614.4041678775
S2 393910.66761714587 2181615.3889678777
S2  393912.6372171459 2181615.3889678777
S2  393912.6372171459 2181617.3585678777
S2  393912.6372171459  2181619.328067878
S2  393914.6067171459  2181619.328067878
S2  393914.6067171459 2181621.2976678777
S2  393915.5915171459 2181621.2976678777
S2  393916.5763171459 2181621.2976678777
S2  393916.5763171459  2181622.610667878
S2  393916.5763171459 2181623.9237678777
S2  393916.5763171459  2181625.236767878
S2  393918.5458171459  2181625.236767878
S2  393918.5458171459  2181627.206367878
S2  393920.5154171459  2181627.206367878
S2  393920.5154171459 2181628.5193678774
S2  393920.5154171459 2181629.8323678775
S2  393920.5154171459 2181631.1454678774
S2 393922.48501714587 2181631.1454678774
S2 393922.48501714587 2181633.1149678775
S2  393923.4697171459 2181633.1149678775
S2  393924.4545171459 2181633.1149678775
S2  393924.4545171459 2181634.4280678774
S2  393924.4545171459 2181635.7410678775
S2  393924.4545171459 2181637.0541678774
S2  393926.4241171459 2181637.0541678774
S2  393926.4241171459 2181639.0236678775
S2  393928.3936171459 2181639.0236678775
S2  393928.3936171459 2181640.3367678775
S2  393928.3936171459 2181641.6497678775
S2  393928.3936171459 2181642.9627678776
S2  393930.3632171459 2181642.9627678776
S2  393930.3632171459 2181644.9323678776
S2  393931.3480171459 2181644.9323678776
S2  393932.3328171459 2181644.9323678776
S2  393932.3328171459 2181646.2453678777
S2  393932.3328171459 2181647.5584678776
S2  393932.3328171459 2181648.8714678776
S2  393934.3023171459 2181648.8714678776
S2  393934.3023171459 2181650.8410678776
S2  393936.2719171459 2181650.8410678776
S2  393936.2719171459 2181652.1540678777
S2  393936.2719171459 2181653.4670678778
S2  393936.2719171459 2181654.7801678777
S2  393937.2567171459 2181654.7801678777
S2  393938.2414171459 2181654.7801678777
S2  393938.2414171459  2181656.749667878
S2  393940.2110171459  2181656.749667878
S2  393940.2110171459 2181658.0627678777
S2  393940.2110171459  2181659.375767878
S2  393940.2110171459 2181660.6888678777
S2  393942.1806171459 2181660.6888678777
S2  393942.1806171459  2181662.658367878
S2  393943.1653171459  2181662.658367878
S2  393944.1501171459  2181662.658367878
S2  393944.1501171459  2181664.627967878
S2  393944.1501171459 2181666.5974678774
S2  393946.1197171459 2181666.5974678774
S2  393946.1197171459 2181667.5822678776
S2  393946.1197171459 2181668.5670678774
S2 393948.08921714587 2181668.5670678774
S2 393948.08921714587 2181669.8800678775
S2 393948.08921714587 2181671.1931678774
S2 393948.08921714587 2181672.5061678775
S2  393949.0740171459 2181672.5061678775
S2  393950.0588171459 2181672.5061678775
S2  393950.0588171459 2181674.4757678774
S2  393952.0284171459 2181674.4757678774
S2  393952.0284171459 2181676.4452678775
S2  393952.0284171459 2181678.4148678775
S2  393953.9979171459 2181678.4148678775
S2  393953.9979171459 2181679.3996678777
S2  393953.9979171459 2181680.3844678774
S2  393954.9827171459 2181680.3844678774
S2  393955.9675171459 2181680.3844678774
S2  393955.9675171459 2181681.6974678775
S2  393955.9675171459 2181683.0104678776
S2  393955.9675171459 2181684.3235678775
S2  393957.9370171459 2181684.3235678775
S2  393957.9370171459 2181686.2930678776
S2 393959.90661714587 2181686.2930678776
S2 393959.90661714587 2181687.6061678776
S2 393959.90661714587 2181688.9191678776
S2 393959.90661714587 2181690.2322678776
S2  393960.8914171459 2181690.2322678776
S2  393961.8762171459 2181690.2322678776
S2  393961.8762171459 2181692.2017678777
S2  393963.8457171459 2181692.2017678777
S2  393963.8457171459 2181694.1713678776
S2  393963.8457171459 2181696.1408678778
S2  393965.8153171459 2181696.1408678778
S2  393965.8153171459 2181697.1256678775
S2  393965.8153171459 2181698.1104678777
S2  393967.7848171459 2181698.1104678777
S2  393967.7848171459 2181700.0800678777
S2  393967.7848171459  2181702.049567878
S2  393968.7696171459  2181702.049567878
S2  393969.7544171459  2181702.049567878
S2  393969.7544171459 2181703.0343678775
S2  393969.7544171459 2181704.0191678777
S2 393971.72401714587 2181704.0191678777
S2 393971.72401714587 2181705.9886678774
S2 393971.72401714587  2181707.958267878
S2  393973.6935171459  2181707.958267878
S2  393973.6935171459 2181708.9430678776
S2  393973.6935171459 2181709.9278678778
S2  393974.6783171459 2181709.9278678778
S2  393975.6631171459 2181709.9278678778
S2  393975.6631171459 2181711.8973678774
S2  393975.6631171459  2181713.866967878
S2  393977.6326171459  2181713.866967878
S2  393977.6326171459 2181714.8517678776
S2  393977.6326171459 2181715.8364678775
S2  393979.6022171459 2181715.8364678775
S2  393979.6022171459 2181717.8060678774
S2  393979.6022171459 2181719.7756678774
S2  393980.5870171459 2181719.7756678774
S2  393981.5718171459 2181719.7756678774
S2  393981.5718171459  2181720.760367878
S2  393981.5718171459 2181721.7451678775
S2 393983.54131714586 2181721.7451678775
S2 393983.54131714586 2181723.7147678775
S2 393983.54131714586 2181725.6842678776
S2  393985.5109171459 2181725.6842678776
S2  393985.5109171459  2181726.669067878
S2  393985.5109171459 2181727.6538678776
S2  393987.4804171459 2181727.6538678776
S2  393987.4804171459 2181729.6234678775
S2  393987.4804171459 2181731.5929678776
S2  393988.4652171459 2181731.5929678776
S2  393989.4500171459 2181731.5929678776
S2  393989.4500171459  2181732.577767878
S2  393989.4500171459 2181733.5625678776
S2  393991.4196171459 2181733.5625678776
S2  393991.4196171459 2181735.5320678777
S2  393991.4196171459 2181737.5016678777
S2  393992.4043171459 2181737.5016678777
S2  393993.3891171459 2181737.5016678777
S2  393993.3891171459 2181738.4864678774
S2  393993.3891171459 2181739.4712678776
S2 393995.35871714586 2181739.4712678776
S2 393995.35871714586 2181741.4407678777
S2 393995.35871714586 2181743.4103678777
S2 393997.32821714587 2181743.4103678777
S2 393997.32821714587 2181744.3951678774
S2 393997.32821714587  2181745.379867878
S2  393998.3130171459  2181745.379867878
S2  393999.2978171459  2181745.379867878
S2  393999.2978171459 2181747.3494678778
S2  393999.2978171459 2181749.3190678777
S2  394001.2674171459 2181749.3190678777
S2  394001.2674171459 2181750.3037678776
S2  394001.2674171459  2181751.288567878
S2  394003.2369171459  2181751.288567878
S2  394003.2369171459  2181753.258167878
S2  394003.2369171459 2181755.2276678775
S2  394005.2065171459 2181755.2276678775
S2  394005.2065171459 2181757.1972678774
S2  394006.1913171459 2181757.1972678774
S2  394007.1760171459 2181757.1972678774
S2  394007.1760171459 2181758.5102678775
S2  394007.1760171459 2181759.8233678774
S2  394007.1760171459 2181761.1363678775
S2 394009.14561714587 2181761.1363678775
S2 394009.14561714587 2181762.1211678777
S2 394009.14561714587 2181763.1059678774
S2  394011.1152171459 2181763.1059678774
S2  394011.1152171459 2181765.0754678776
S2  394011.1152171459 2181767.0450678775
S2  394012.0999171459 2181767.0450678775
S2  394013.0847171459 2181767.0450678775
S2  394013.0847171459 2181768.0298678777
S2  394013.0847171459 2181769.0146678775
S2  394015.0543171459 2181769.0146678775
S2  394015.0543171459 2181770.9841678776
S2  394015.0543171459 2181772.9537678775
S2  394017.0238171459 2181772.9537678775
S2  394017.0238171459 2181773.9385678777
S2  394017.0238171459 2181774.9232678777
S2  394018.0086171459 2181774.9232678777
S2  394018.9934171459 2181774.9232678777
S2  394018.9934171459 2181776.8928678776
S2  394018.9934171459 2181778.8624678776
S2 394020.96301714587 2181778.8624678776
S2 394020.96301714587 2181779.8471678775
S2 394020.96301714587 2181780.8319678777
S2  394022.9325171459 2181780.8319678777
S2  394022.9325171459 2181782.8015678776
S2  394022.9325171459 2181784.7710678778
S2  394024.9021171459 2181784.7710678778
S2  394024.9021171459 2181786.7406678777
S2 394025.88691714586 2181786.7406678777
S2  394026.8716171459 2181786.7406678777
S2  394026.8716171459  2181788.053667878
S2  394026.8716171459 2181789.3667678777
S2  394026.8716171459  2181790.679767878
S2  394028.8412171459  2181790.679767878
S2  394028.8412171459 2181791.6645678775
S2  394028.8412171459 2181792.6493678777
S2  394030.8108171459 2181792.6493678777
S2  394030.8108171459 2181794.6188678774
S2  394030.8108171459  2181796.588467878
S2  394031.7955171459  2181796.588467878
S2 394032.78031714587  2181796.588467878
S2 394032.78031714587 2181798.5579678775
S2  394034.7499171459 2181798.5579678775
S2  394034.7499171459 2181799.5427678777
S2  394034.7499171459 2181800.5275678774
S2  394036.0629171459 2181800.5275678774
S2 394037.37601714587 2181800.5275678774
S2  394038.6890171459 2181800.5275678774
S2  394038.6890171459 2181801.5123678776
S2  394038.6890171459 2181802.4971678774
S2  394040.6586171459 2181802.4971678774
S2  394040.6586171459 2181803.4818678778
S2  394040.6586171459 2181804.4666678775
S2  394042.6281171459 2181804.4666678775
S2  394042.6281171459 2181806.4362678775
S2  394043.6129171459 2181806.4362678775
S2 394044.59771714587 2181806.4362678775
S2 394044.59771714587 2181807.4210678777
S2 394044.59771714587 2181808.4057678776
S2  394046.5672171459 2181808.4057678776
S2  394048.5368171459 2181808.4057678776
S2  394048.5368171459 2181810.3753678775
S2  394049.5216171459 2181810.3753678775
S2  394050.5064171459 2181810.3753678775
S2  394050.5064171459 2181811.3601678777
S2  394050.5064171459 2181812.3449678775
S2  394052.4759171459 2181812.3449678775
S2  394052.4759171459 2181813.3296678774
S2  394052.4759171459 2181814.3144678776
S2  394054.4455171459 2181814.3144678776
S2  394054.4455171459 2181816.2840678776
S2  394055.7585171459 2181816.2840678776
S2  394057.0715171459 2181816.2840678776
S2  394058.3846171459 2181816.2840678776
S2  394058.3846171459  2181817.268867878
S2  394058.3846171459 2181818.2535678777
S2  394060.3541171459 2181818.2535678777
S2  394060.3541171459 2181819.2383678774
S2  394060.3541171459 2181820.2231678776
S2  394062.3237171459 2181820.2231678776
S2  394062.3237171459 2181821.2079678774
S2  394062.3237171459 2181822.1927678776
S2  394063.6367171459 2181822.1927678776
S2  394064.9498171459 2181822.1927678776
S2  394066.2628171459 2181822.1927678776
S2  394066.2628171459 2181824.1622678777
S2  394068.2324171459 2181824.1622678777
S2  394068.2324171459 2181825.1470678775
S2  394068.2324171459 2181826.1318678777
S2  394069.2172171459 2181826.1318678777
S2 394070.20191714587 2181826.1318678777
S2 394070.20191714587  2181828.101367878
S2  394072.1715171459  2181828.101367878
S2  394072.1715171459 2181829.0861678775
S2  394072.1715171459 2181830.0709678777
S2  394074.1411171459 2181830.0709678777
S2  394076.1106171459 2181830.0709678777
S2  394076.1106171459 2181832.0405678777
S2  394077.0954171459 2181832.0405678777
S2  394078.0802171459 2181832.0405678777
S2  394078.0802171459 2181833.0252678776
S2  394078.0802171459  2181834.010067878
S2  394080.0497171459  2181834.010067878
S2  394080.0497171459  2181835.979667878
S2  394081.0345171459  2181835.979667878
S2 394082.01931714587  2181835.979667878
S2 394082.01931714587 2181836.9644678775
S2 394082.01931714587 2181837.9491678774
S2  394083.9889171459 2181837.9491678774
S2  394085.9584171459 2181837.9491678774
S2  394085.9584171459 2181839.9187678774
S2  394086.9432171459 2181839.9187678774
S2  394087.9280171459 2181839.9187678774
S2  394087.9280171459 2181840.9035678776
S2  394087.9280171459  2181841.888367878
S2  394089.8975171459  2181841.888367878
S2  394089.8975171459 2181843.8578678775
S2  394091.2106171459 2181843.8578678775
S2  394092.5236171459 2181843.8578678775
S2 394093.83671714587 2181843.8578678775
S2 394093.83671714587 2181844.8426678777
S2 394093.83671714587 2181845.8274678774
S2  394095.8062171459 2181845.8274678774
S2  394095.8062171459 2181846.8122678776
S2  394095.8062171459 2181847.7969678775
S2  394097.7758171459 2181847.7969678775
S2  394097.7758171459 2181848.7817678778
S2  394097.7758171459 2181849.7665678775
S2  394099.7453171459 2181849.7665678775
S2  394099.7453171459 2181851.7361678774
S2  394101.0584171459 2181851.7361678774
S2  394102.3714171459 2181851.7361678774
S2  394103.6845171459 2181851.7361678774
S2  394103.6845171459  2181852.720867878
S2  394103.6845171459 2181853.7056678776
S2  394105.6540171459 2181853.7056678776
S2  394105.6540171459 2181855.6752678775
S2  394106.6388171459 2181855.6752678775
S2  394107.6236171459 2181855.6752678775
S2  394107.6236171459 2181856.6600678777
S2  394107.6236171459 2181857.6447678776
S2  394109.5931171459 2181857.6447678776
S2  394109.5931171459 2181858.6295678774
S2  394109.5931171459 2181859.6143678776
S2  394111.5627171459 2181859.6143678776
S2  394113.5323171459 2181859.6143678776
S2  394113.5323171459 2181861.5839678776
S2  394114.5170171459 2181861.5839678776
S2  394115.5018171459 2181861.5839678776
S2  394115.5018171459 2181862.5686678775
S2  394115.5018171459 2181863.5534678777
S2  394117.4714171459 2181863.5534678777
S2  394117.4714171459 2181864.5382678774
S2  394117.4714171459 2181865.5230678776
S2 394119.44091714587 2181865.5230678776
S2 394119.44091714587  2181866.507867878
S2 394119.44091714587 2181867.4925678778
S2  394120.7540171459 2181867.4925678778
S2  394122.0670171459 2181867.4925678778
S2  394123.3801171459 2181867.4925678778
S2  394123.3801171459 2181869.4621678777
S2  394125.3496171459 2181869.4621678777
S2  394125.3496171459 2181870.4469678774
S2  394125.3496171459 2181871.4317678777
S2  394126.3344171459 2181871.4317678777
S2  394127.3192171459 2181871.4317678777
S2  394127.3192171459  2181873.401267878
S2  394129.2887171459  2181873.401267878
S2 394131.25831714587  2181873.401267878
S2 394131.25831714587 2181874.3860678775
S2 394131.25831714587 2181875.3708678777
S2  394132.2431171459 2181875.3708678777
S2  394133.2279171459 2181875.3708678777
S2  394133.2279171459 2181876.3556678775
S2  394133.2279171459 2181877.3403678774
S2  394135.1974171459 2181877.3403678774
S2  394135.1974171459 2181878.3251678776
S2  394135.1974171459  2181879.309967878
S2  394137.1670171459  2181879.309967878
S2  394137.1670171459 2181881.2795678778
S2 394138.48001714586 2181881.2795678778
S2  394139.7931171459 2181881.2795678778
S2  394141.1061171459 2181881.2795678778
S2  394141.1061171459 2181882.2642678777
S2  394141.1061171459 2181883.2490678774
S2 394143.07571714587 2181883.2490678774
S2 394143.07571714587  2181885.218667878
S2  394145.0452171459  2181885.218667878
S2  394145.0452171459 2181886.2034678776
S2  394145.0452171459 2181887.1881678775
S2  394146.0300171459 2181887.1881678775
S2  394147.0148171459 2181887.1881678775
S2  394147.0148171459 2181888.1729678777
S2  394147.0148171459 2181889.1577678774
S2  394148.9843171459 2181889.1577678774
S2  394150.9539171459 2181889.1577678774
S2  394150.9539171459 2181891.1273678774
S2  394151.9387171459 2181891.1273678774
S2  394152.9235171459 2181891.1273678774
S2  394152.9235171459  2181892.112067878
S2  394152.9235171459 2181893.0968678775
S2 394154.89301714586 2181893.0968678775
S2 394154.89301714586 2181894.0816678777
S2 394154.89301714586 2181895.0664678775
S2  394156.2061171459 2181895.0664678775
S2  394157.5191171459 2181895.0664678775
S2  394158.8321171459 2181895.0664678775
S2  394158.8321171459 2181897.0359678776
S2  394160.8017171459 2181897.0359678776
S2  394160.8017171459  2181898.020767878
S2  394160.8017171459 2181899.0055678776
S2  394162.7713171459 2181899.0055678776
S2  394162.7713171459 2181899.9903678778
S2  394162.7713171459 2181900.9751678775
S2  394164.7408171459 2181900.9751678775
S2  394164.7408171459 2181902.9446678776
S2  394166.0539171459 2181902.9446678776
S2  394167.3669171459 2181902.9446678776
S2 394168.67991714587 2181902.9446678776
S2 394168.67991714587  2181903.929467878
S2 394168.67991714587 2181904.9142678776
S2  394169.6647171459 2181904.9142678776
S2  394170.6495171459 2181904.9142678776
S2  394170.6495171459 2181906.8837678777
S2  394172.6191171459 2181906.8837678777
S2  394172.6191171459 2181907.8685678774
S2  394172.6191171459 2181908.8533678777
S2  394174.5886171459 2181908.8533678777
S2  394174.5886171459 2181909.8381678774
S2  394174.5886171459 2181910.8229678776
S2 394175.90171714587 2181910.8229678776
S2  394177.2147171459 2181910.8229678776
S2  394178.5277171459 2181910.8229678776
S2  394178.5277171459 2181911.8076678775
S2  394178.5277171459 2181912.7924678777
S2 394180.49731714587 2181912.7924678777
S2 394180.49731714587 2181914.7620678777
S2  394182.4669171459 2181914.7620678777
S2  394182.4669171459 2181915.7468678774
S2  394182.4669171459  2181916.731567878
S2  394183.7799171459  2181916.731567878
S2 394185.09291714587  2181916.731567878
S2  394186.4060171459  2181916.731567878
S2  394186.4060171459 2181918.7011678778
S2  394188.3755171459 2181918.7011678778
S2  394188.3755171459 2181919.6859678775
S2  394188.3755171459 2181920.6707678777
S2  394189.3603171459 2181920.6707678777
S2  394190.3451171459 2181920.6707678777
S2  394190.3451171459 2181921.6554678776
S2  394190.3451171459  2181922.640267878
S2 394192.31461714586  2181922.640267878
S2 394192.31461714586 2181923.6250678776
S2 394192.31461714586  2181924.609867878
S2  394193.6277171459  2181924.609867878
S2  394194.9407171459  2181924.609867878
S2  394196.2538171459  2181924.609867878
S2  394196.2538171459 2181926.5793678774
S2  394198.2233171459 2181926.5793678774
S2  394198.2233171459 2181927.5641678777
S2  394198.2233171459 2181928.5489678774
S2  394200.1929171459 2181928.5489678774
S2  394200.1929171459 2181930.5184678775
S2  394202.1624171459 2181930.5184678775
S2  394202.1624171459 2181931.5032678777
S2  394202.1624171459 2181932.4880678775
S2  394203.4755171459 2181932.4880678775
S2  394204.7885171459 2181932.4880678775
S2  394206.1016171459 2181932.4880678775
S2  394206.1016171459 2181933.4728678777
S2  394206.1016171459 2181934.4576678774
S2  394208.0711171459 2181934.4576678774
S2  394208.0711171459 2181936.4271678776
S2  394209.0559171459 2181936.4271678776
S2  394210.0407171459 2181936.4271678776
S2  394210.0407171459 2181937.4119678778
S2  394210.0407171459 2181938.3967678775
S2  394211.3537171459 2181938.3967678775
S2  394212.6668171459 2181938.3967678775
S2  394213.9798171459 2181938.3967678775
S2  394213.9798171459 2181939.3815678777
S2  394213.9798171459 2181940.3662678776
S2 394215.94941714586 2181940.3662678776
S2 394215.94941714586 2181942.3358678776
S2  394217.9189171459 2181942.3358678776
S2  394217.9189171459  2181943.320667878
S2  394217.9189171459 2181944.3054678775
S2  394219.8885171459 2181944.3054678775
S2  394219.8885171459 2181945.2901678775
S2  394219.8885171459 2181946.2749678777
S2  394221.2015171459 2181946.2749678777
S2  394222.5146171459 2181946.2749678777
S2  394223.8276171459 2181946.2749678777
S2  394223.8276171459 2181948.2445678776
S2  394225.7972171459 2181948.2445678776
S2  394225.7972171459  2181949.229367878
S2  394225.7972171459 2181950.2140678777
S2  394226.7819171459 2181950.2140678777
S2  394227.7667171459 2181950.2140678777
S2  394227.7667171459 2181951.1988678775
S2  394227.7667171459 2181952.1836678777
S2  394229.7363171459 2181952.1836678777
S2  394229.7363171459 2181953.1684678774
S2  394229.7363171459 2181954.1532678776
S2  394231.0493171459 2181954.1532678776
S2 394232.36241714587 2181954.1532678776
S2  394233.6754171459 2181954.1532678776
S2  394233.6754171459 2181956.1227678778
S2  394235.6450171459 2181956.1227678778
S2  394235.6450171459 2181957.1075678775
S2  394235.6450171459 2181958.0923678777
S2  394237.6145171459 2181958.0923678777
S2  394237.6145171459  2181960.061867878
S2  394238.9276171459  2181960.061867878
S2  394240.2406171459  2181960.061867878
S2 394241.55361714587  2181960.061867878
S2 394241.55361714587 2181961.0466678776
S2 394241.55361714587  2181962.031467878
S2  394243.5232171459  2181962.031467878
S2  394243.5232171459 2181963.0162678775
S2  394243.5232171459 2181964.0010678777
S2  394245.4928171459 2181964.0010678777
S2  394245.4928171459 2181965.9705678774
S2  394246.4775171459 2181965.9705678774
S2  394247.4623171459 2181965.9705678774
S2  394247.4623171459 2181966.9553678776
S2  394247.4623171459  2181967.940167878
S2  394249.4319171459  2181967.940167878
S2  394251.4014171459  2181967.940167878
S2  394251.4014171459 2181968.9249678776
S2  394251.4014171459 2181969.9096678775
S2  394252.3862171459 2181969.9096678775
S2 394253.37101714587 2181969.9096678775
S2 394253.37101714587 2181971.8792678774
S2  394255.3406171459 2181971.8792678774
S2  394255.3406171459 2181972.8640678776
S2  394255.3406171459 2181973.8488678774
S2  394257.3101171459 2181973.8488678774
S2  394257.3101171459 2181975.8183678775
S2  394258.6232171459 2181975.8183678775
S2  394259.9362171459 2181975.8183678775
S2  394261.2492171459 2181975.8183678775
S2  394261.2492171459 2181976.8031678777
S2  394261.2492171459 2181977.7879678775
S2  394263.2188171459 2181977.7879678775
S2  394263.2188171459 2181978.7727678777
S2  394263.2188171459 2181979.7574678776
S2  394264.2036171459 2181979.7574678776
S2 394265.18841714587 2181979.7574678776
S2 394265.18841714587 2181981.7270678775
S2  394267.1579171459 2181981.7270678775
S2  394267.1579171459 2181982.7118678777
S2  394267.1579171459 2181983.6966678775
S2  394268.4710171459 2181983.6966678775
S2 394269.78401714587 2181983.6966678775
S2  394271.0970171459 2181983.6966678775
S2  394271.0970171459 2181984.6813678774
S2  394271.0970171459 2181985.6661678776
S2  394273.0666171459 2181985.6661678776
S2  394273.0666171459 2181987.6357678776
S2  394275.0362171459 2181987.6357678776
S2  394275.0362171459  2181988.620567878
S2  394275.0362171459 2181989.6052678777
S2  394276.3492171459 2181989.6052678777
S2  394277.6622171459 2181989.6052678777
S2  394278.9753171459 2181989.6052678777
S2  394278.9753171459 2181990.5900678774
S2  394278.9753171459 2181991.5748678776
S2  394280.9448171459 2181991.5748678776
S2  394280.9448171459 2181993.5444678776
S2  394282.9144171459 2181993.5444678776
S2  394282.9144171459 2181994.5291678775
S2  394282.9144171459 2181995.5139678777
S2 394283.89921714587 2181995.5139678777
S2  394284.8840171459 2181995.5139678777
S2  394284.8840171459 2181996.4987678775
S2  394284.8840171459 2181997.4835678777
S2  394286.8535171459 2181997.4835678777
S2  394288.8231171459 2181997.4835678777
S2  394288.8231171459 2181998.4683678774
S2  394288.8231171459  2181999.453067878
S2 394290.79261714587  2181999.453067878
S2 394290.79261714587 2182001.4226678777
S2  394291.7774171459 2182001.4226678777
S2  394292.7622171459 2182001.4226678777
S2  394292.7622171459 2182002.4074678775
S2  394292.7622171459 2182003.3922678777
S2  394294.7318171459 2182003.3922678777
S2  394294.7318171459  2182005.361767878
S2  394296.0448171459  2182005.361767878
S2  394297.3578171459  2182005.361767878
S2  394298.6709171459  2182005.361767878
S2  394298.6709171459 2182006.3465678776
S2  394298.6709171459  2182007.331367878
S2  394300.6404171459  2182007.331367878
S2  394300.6404171459 2182008.3161678775
S2  394300.6404171459 2182009.3008678774
S2  394301.6252171459 2182009.3008678774
S2 394302.61001714587 2182009.3008678774
S2 394302.61001714587 2182011.2704678774
S2  394304.5796171459 2182011.2704678774
S2  394306.5491171459 2182011.2704678774
S2  394306.5491171459 2182012.2552678776
S2  394306.5491171459  2182013.240067878
S2  394307.5339171459  2182013.240067878
S2  394308.5187171459  2182013.240067878
S2  394308.5187171459 2182014.2247678777
S2  394308.5187171459 2182015.2095678775
S2  394310.4882171459 2182015.2095678775
S2  394310.4882171459 2182017.1791678774
S2  394312.4578171459 2182017.1791678774
S2  394312.4578171459 2182018.1639678776
S2  394312.4578171459 2182019.1486678775
S2  394313.7708171459 2182019.1486678775
S2  394315.0839171459 2182019.1486678775
S2  394316.3969171459 2182019.1486678775
S2  394316.3969171459 2182021.1182678775
S2  394318.3665171459 2182021.1182678775
S2  394318.3665171459 2182022.1030678777
S2  394318.3665171459 2182023.0878678774
S2  394320.3360171459 2182023.0878678774
S2  394320.3360171459  2182024.072567878
S2  394320.3360171459 2182025.0573678776
S2  394322.3056171459 2182025.0573678776
S2  394322.3056171459  2182026.042167878
S2  394322.3056171459 2182027.0269678775
S2 394323.61861714587 2182027.0269678775
S2  394324.9317171459 2182027.0269678775
S2  394326.2447171459 2182027.0269678775
S2  394326.2447171459 2182028.9964678776
S2  394328.2143171459 2182028.9964678776
S2  394328.2143171459 2182029.9812678774
S2  394328.2143171459 2182030.9660678776
S2  394329.1990171459 2182030.9660678776
S2  394330.1838171459 2182030.9660678776
S2  394330.1838171459  2182031.950867878
S2  394330.1838171459 2182032.9356678776
S2  394332.1534171459 2182032.9356678776
S2  394334.1229171459 2182032.9356678776
S2  394334.1229171459 2182034.9051678777
S2  394335.1077171459 2182034.9051678777
S2  394336.0925171459 2182034.9051678777
S2  394336.0925171459 2182035.8899678774
S2  394336.0925171459 2182036.8747678776
S2  394338.0621171459 2182036.8747678776
S2  394338.0621171459  2182037.859567878
S2  394338.0621171459 2182038.8442678778
S2 394340.03161714587 2182038.8442678778
S2 394340.03161714587 2182040.8138678777
S2  394341.3447171459 2182040.8138678777
S2 394342.65771714586 2182040.8138678777
S2  394343.9707171459 2182040.8138678777
S2  394343.9707171459 2182041.7986678774
S2  394343.9707171459 2182042.7834678777
S2  394345.9403171459 2182042.7834678777
S2  394345.9403171459 2182043.7681678776
S2  394345.9403171459  2182044.752967878
S2  394346.9251171459  2182044.752967878
S2  394347.9099171459  2182044.752967878
S2  394347.9099171459 2182046.7225678777
S2  394349.8794171459 2182046.7225678777
S2  394349.8794171459 2182047.7073678775
S2  394349.8794171459 2182048.6920678774
S2  394351.1925171459 2182048.6920678774
S2  394352.5055171459 2182048.6920678774
S2  394353.8185171459 2182048.6920678774
S2  394353.8185171459  2182050.661667878
S2  394355.7881171459  2182050.661667878
S2  394355.7881171459 2182051.6464678776
S2  394355.7881171459 2182052.6312678778
S2  394357.7577171459 2182052.6312678778
S2  394357.7577171459 2182053.6159678777
S2  394357.7577171459 2182054.6007678774
S2 394359.07071714586 2182054.6007678774
S2  394360.3837171459 2182054.6007678774
S2  394361.6968171459 2182054.6007678774
S2  394361.6968171459  2182056.570367878
S2 394363.66631714586  2182056.570367878
S2 394363.66631714586 2182057.5551678776
S2 394363.66631714586 2182058.5398678775
S2  394365.6359171459 2182058.5398678775
S2  394365.6359171459 2182059.5246678777
S2  394365.6359171459 2182060.5094678774
S2  394366.6207171459 2182060.5094678774
S2  394367.6055171459 2182060.5094678774
S2  394367.6055171459 2182062.4790678774
S2  394369.5750171459 2182062.4790678774
S2  394371.5446171459 2182062.4790678774
S2  394371.5446171459  2182063.463767878
S2  394371.5446171459 2182064.4485678775
S2  394372.5294171459 2182064.4485678775
S2  394373.5141171459 2182064.4485678775
S2  394373.5141171459 2182066.4181678775
S2 394375.48371714586 2182066.4181678775
S2 394375.48371714586 2182067.4028678774
S2 394375.48371714586 2182068.3876678776
S2  394377.4533171459 2182068.3876678776
S2  394377.4533171459  2182069.372467878
S2  394377.4533171459 2182070.3572678776
S2  394378.7663171459 2182070.3572678776
S2 394380.07931714586 2182070.3572678776
S2  394381.3924171459 2182070.3572678776
S2  394381.3924171459 2182071.3420678778
S2  394381.3924171459 2182072.3267678777
S2  394383.3619171459 2182072.3267678777
S2  394383.3619171459 2182074.2963678776
S2  394384.3467171459 2182074.2963678776
S2  394385.3315171459 2182074.2963678776
S2  394385.3315171459  2182075.281167878
S2  394385.3315171459 2182076.2659678776
S2 394387.30111714586 2182076.2659678776
S2 394387.30111714586 2182077.2506678775
S2 394387.30111714586 2182078.2354678777
S2 394389.27061714587 2182078.2354678777
S2 394389.27061714587 2182080.2050678777
S2  394390.2554171459 2182080.2050678777
S2  394391.2402171459 2182080.2050678777
S2  394391.2402171459 2182081.1898678774
S2  394391.2402171459  2182082.174567878
S2  394393.2097171459  2182082.174567878
S2  394393.2097171459 2182083.1593678775
S2  394393.2097171459 2182084.1441678777
S2  394395.1793171459 2182084.1441678777
S2  394395.1793171459 2182086.1137678777
S2  394397.1489171459 2182086.1137678777
S2  394397.1489171459 2182087.0984678776
S2  394397.1489171459  2182088.083267878
S2  394398.1336171459  2182088.083267878
S2  394399.1184171459  2182088.083267878
S2  394399.1184171459 2182089.0680678776
S2  394399.1184171459 2182090.0528678778
S2 394401.08801714587 2182090.0528678778
S2 394401.08801714587 2182092.0223678774
S2  394403.0575171459 2182092.0223678774
S2  394403.0575171459 2182093.0071678776
S2  394403.0575171459  2182093.991967878
S2  394404.0423171459  2182093.991967878
S2  394405.0271171459  2182093.991967878
S2  394405.0271171459  2182095.961567878
S2  394406.9967171459  2182095.961567878
S2  394406.9967171459 2182096.9462678777
S2  394406.9967171459 2182097.9310678774
S2  394408.9662171459 2182097.9310678774
S2  394408.9662171459 2182098.9158678777
S2  394408.9662171459 2182099.9006678774
S2  394409.9510171459 2182099.9006678774
S2  394410.9358171459 2182099.9006678774
S2  394410.9358171459 2182100.8854678776
S2  394410.9358171459 2182101.8701678775
S2 394412.90531714587 2182101.8701678775
S2 394412.90531714587 2182103.8397678775
S2  394414.8749171459 2182103.8397678775
S2  394416.8445171459 2182103.8397678775
S2  394416.8445171459 2182104.8245678777
S2  394416.8445171459 2182105.8093678774
S2  394417.8292171459 2182105.8093678774
S2  394418.8140171459 2182105.8093678774
S2  394418.8140171459 2182107.7788678776
S2  394420.7836171459 2182107.7788678776
S2  394420.7836171459 2182108.7636678778
S2  394420.7836171459 2182109.7484678775
S2  394422.7531171459 2182109.7484678775
S2  394422.7531171459 2182110.7332678777
S2  394422.7531171459 2182111.7179678776
S2  394423.7379171459 2182111.7179678776
S2 394424.72271714587 2182111.7179678776
S2 394424.72271714587  2182112.702767878
S2 394424.72271714587 2182113.6875678776
S2  394426.6923171459 2182113.6875678776
S2  394426.6923171459 2182115.6571678775
S2  394428.6618171459 2182115.6571678775
S2  394428.6618171459 2182116.6418678774
S2  394428.6618171459 2182117.6266678777
S2  394429.6466171459 2182117.6266678777
S2  394430.6314171459 2182117.6266678777
S2  394430.6314171459 2182119.5962678776
S2  394432.6009171459 2182119.5962678776
S2  394432.6009171459  2182120.581067878
S2  394432.6009171459 2182121.5657678777
S2  394434.5705171459 2182121.5657678777
S2  394434.5705171459 2182122.5505678775
S2  394434.5705171459 2182123.5353678777
S2  394435.5553171459 2182123.5353678777
S2 394436.54011714587 2182123.5353678777
S2 394436.54011714587 2182125.5049678776
S2  394438.5096171459 2182125.5049678776
S2  394438.5096171459 2182126.4896678776
S2  394438.5096171459 2182127.4744678778
S2  394440.4792171459 2182127.4744678778
S2  394440.4792171459 2182128.4592678775
S2  394440.4792171459 2182129.4440678777
S2  394441.4640171459 2182129.4440678777
S2  394442.4487171459 2182129.4440678777
S2  394442.4487171459  2182131.413567878
S2  394444.4183171459  2182131.413567878
S2  394444.4183171459 2182132.3983678776
S2  394444.4183171459  2182133.383167878
S2  394446.3879171459  2182133.383167878
S2  394446.3879171459 2182134.3679678775
S2  394446.3879171459 2182135.3527678777
S2  394447.3726171459 2182135.3527678777
S2  394448.3574171459 2182135.3527678777
S2  394448.3574171459 2182137.3222678774
S2  394450.3270171459 2182137.3222678774
S2  394450.3270171459 2182138.3070678776
S2  394450.3270171459  2182139.291867878
S2  394452.2965171459  2182139.291867878
S2  394452.2965171459 2182141.2613678775
S2  394454.2661171459 2182141.2613678775
S2  394454.2661171459 2182142.2461678777
S2  394454.2661171459 2182143.2309678774
S2 394455.25091714587 2182143.2309678774
S2  394456.2357171459 2182143.2309678774
S2  394456.2357171459 2182144.2157678776
S2  394456.2357171459 2182145.2005678774
S2  394458.2052171459 2182145.2005678774
S2  394458.2052171459 2182146.1852678778
S2  394458.2052171459 2182147.1700678775
S2  394460.1748171459 2182147.1700678775
S2  394460.1748171459 2182149.1396678775
S2  394461.1596171459 2182149.1396678775
S2 394462.14431714587 2182149.1396678775
S2 394462.14431714587 2182150.1244678777
S2 394462.14431714587 2182151.1091678776
S2  394464.1139171459 2182151.1091678776
S2  394464.1139171459 2182153.0787678775
S2  394466.0834171459 2182153.0787678775
S2  394466.0834171459 2182154.0635678777
S2  394466.0834171459 2182155.0483678775
S2  394468.0530171459 2182155.0483678775
S2  394468.0530171459 2182156.0330678774
S2  394468.0530171459 2182157.0178678776
S2  394469.0378171459 2182157.0178678776
S2  394470.0226171459 2182157.0178678776
S2  394470.0226171459  2182158.002667878
S2  394470.0226171459 2182158.9874678776
S2  394471.9921171459 2182158.9874678776
S2  394471.9921171459 2182160.9569678777
S2  394472.9769171459 2182160.9569678777
S2 394473.96171714587 2182160.9569678777
S2 394473.96171714587 2182161.9417678774
S2 394473.96171714587 2182162.9265678776
S2  394475.9312171459 2182162.9265678776
S2  394477.9008171459 2182162.9265678776
S2  394477.9008171459 2182163.9113678774
S2  394477.9008171459 2182164.8961678776
S2  394478.8856171459 2182164.8961678776
S2  394479.8704171459 2182164.8961678776
S2  394479.8704171459 2182166.8656678777
S2  394481.8399171459 2182166.8656678777
S2  394481.8399171459 2182167.8504678775
S2  394481.8399171459 2182168.8352678777
S2  394483.8095171459 2182168.8352678777
S2  394483.8095171459 2182169.6747678774
S2  394677.9686171459 2182175.2035678774
S2  394698.6549171459 2182154.0942678778
S3  394188.5969672984 2182695.4055084046
S3   394219.278891444 2182685.6083112354
S3 394211.15112093335  2182673.796521537
S3 394206.34188836446 2182663.6061066934
S3 394201.15112093335  2182653.796521537
S3  394192.7348257926   2182635.96324556
S3  394166.1511209335  2182618.796521537
S3 394151.34188836464 2182608.6061066915
S3  394131.7375185646 2182599.3544022003
S3  394125.0567907578 2182586.7286359887
S3  394133.8325844332  2182561.690815091
S3 394109.99892535317  2182535.968136966
S3  394084.1613978858 2182519.2823414574
S3 394096.15112093376  2182485.074609625
S3 394082.58439995983 2182441.5516350144
S3  394057.5763063823 2182429.7499061087
S3 394047.10432920913  2182420.046521536
S3  394041.3230991179 2182409.1215244266
S3 394040.65860538965  2182409.121521639
S3 394040.65860538965  2182408.136721639
S3 394040.65860539186 2182407.8657216397
S3 394040.65860538965 2182407.1519216383
S3  394040.2808053914 2182407.1519216383
S3  394039.3455053917 2182407.1519216383
S3 394038.03250539035 2182407.1519216383
S3  394036.7194053902 2182407.1519216383
S3  394036.7194053902  2182406.167221639
S3  394036.7194053902 2182405.1824216386
S3 394034.74990539043 2182405.1824216386
S3 394034.74990539043 2182403.2128216377
S3  394033.4368053903 2182403.2128216377
S3 394032.12380539114 2182403.2128216377
S3 394030.81080539204   2182403.21282164
S3 394030.81080538983 2182402.2280216375
S3 394030.81080538983  2182401.243321638
S3  394028.8412053912  2182401.243321638
S3  394028.8412053912  2182399.273721637
S3 394027.52820538986 2182399.2737216395
S3  394026.2151053919  2182399.273721637
S3 394024.90210539056 2182399.2737216395
S3 394024.90210539056  2182398.288921639
S3 394024.90210539056 2182397.3041216386
S3 394022.93250538973 2182397.3041216386
S3   394022.932505392  2182396.319421639
S3 394022.93250538973  2182395.334621639
S3 394020.96300538996  2182395.334621639
S3 394018.99340538913  2182395.334621639
S3 394018.99340538913  2182393.365021638
S3 394018.00860539096  2182393.365021638
S3  394017.0238053905  2182393.365021638
S3  394017.0238053905 2182392.3802216398
S3  394017.0238053905  2182391.395521638
S3 394015.05430539075 2182391.3955216403
S3 394013.08470539213 2182391.3955216403
S3  394013.0847053899  2182390.410721638
S3 394013.08470539213 2182389.4259216394
S3 394012.09990539175 2182389.4259216394
S3 394011.11520539236 2182389.4259216394
S3  394011.1152053879 2182387.4563216385
S3 394009.14560539153 2182387.4563216385
S3  394007.1760053907 2182387.4563216385
S3  394007.1760053907 2182386.4716216396
S3  394007.1760053929  2182385.486821639
S3 394005.86300538934  2182385.486821639
S3  394004.5500053902  2182385.486821639
S3  394003.2369053923  2182385.486821639
S3 394003.23690539005 2182384.5020216387
S3 394003.23690539005 2182383.5172216403
S3  394001.2674053903  2182383.517221638
S3  394001.2674053903 2182381.5477216383
S3  393999.9543053901 2182381.5477216383
S3   393998.641305391 2182381.5477216383
S3  393997.3283053897 2182381.5477216383
S3  393997.3283053897   2182380.56292164
S3  393997.3283053897   2182379.57812164
S3 393995.35870539106   2182379.57812164
S3 393995.35870538885  2182378.593321639
S3 393995.35870539106  2182377.873721639
S3 393995.35870539106  2182377.608621638
S3  393994.0457053919  2182377.608621638
S3 393993.69420539093   2182377.60862164
S3 393992.73260539176   2182377.60862164
S3  393991.4196053904  2182377.608621638
S3  393991.4196053904 2182377.2462216388
S3  393991.4196053904 2182375.6390216392
S3 393989.45000539185 2182375.6390216392
S3 393989.45000539185 2182374.6542216386
S3 393989.45000539185 2182373.6694216384
S3  393988.1370053905 2182373.6694216384
S3 393986.82390539034 2182373.6694216384
S3  393985.5109053912 2182373.6694216384
S3  393985.5109053912  2182372.684721639
S3  393985.5109053912 2182371.6999216387
S3 393983.54130539036 2182371.6999216387
S3 393983.54130539036  2182369.730321638
S3 393982.22830539127  2182369.730321638
S3  393980.9153053921  2182369.730321638
S3 393979.60220538976 2182369.7303216397
S3   393979.602205392 2182368.7455216395
S3   393979.602205392 2182367.7608216377
S3    393977.63270539   2182367.76082164
S3    393977.63270539   2182366.77602164
S3    393977.63270539  2182365.791221639
S3 393976.31960539205  2182365.791221639
S3  393975.0066053907  2182365.791221639
S3 393973.69350539055  2182365.791221639
S3 393973.69350539055 2182363.8216216383
S3  393971.7240053907 2182363.8216216383
S3  393971.7240053907 2182362.8369216393
S3  393971.7240053907 2182361.8521216386
S3 393970.41090539057 2182361.8521216386
S3  393969.0979053915 2182361.8521216386
S3  393967.7849053901 2182361.8521216386
S3  393967.7849053901 2182360.8673216384
S3  393967.7849053923 2182359.8825216377
S3  393965.8153053893   2182359.88252164
S3  393965.8153053893 2182357.9130216404
S3  393963.8457053907  2182357.913021638
S3  393961.8762053909  2182357.913021638
S3  393961.8762053909  2182356.928221638
S3  393961.8762053909 2182355.9434216395
S3 393960.56310539297 2182355.9434216395
S3  393959.3088053907 2182355.9434216395
S3  393959.2501053916  2182355.943421637
S3  393957.9371053903 2182355.9434216395
S3  393957.9371053903 2182353.9738216386
S3  393955.9675053917 2182353.9738216386
S3  393955.9675053895  2182352.989121639
S3  393955.9675053917  2182352.004321639
S3  393954.6545053903  2182352.004321639
S3  393953.3414053902  2182352.004321639
S3   393952.028405391  2182352.004321639
S3  393952.0284053933 2182351.0195216383
S3   393952.028405391  2182350.034721638
S3  393950.0588053925  2182350.034721638
S3  393950.0588053902 2182349.0499216397
S3  393950.0588053902 2182348.0652216384
S3  393948.7458053911 2182348.0652216384
S3 393947.43270539097 2182348.0652216384
S3  393946.1197053918 2182348.0652216384
S3  393946.1197053918 2182346.0956216394
S3   393944.150105391 2182346.0956216394
S3   393944.150105391  2182345.110821639
S3   393944.150105391  2182344.126021639
S3  393942.8371053919  2182344.126021639
S3 393941.52410539053  2182344.126021639
S3  393940.2110053904  2182344.126021639
S3  393940.2110053926  2182342.156521639
S3 393938.24150539056  2182342.156521639
S3 393938.24150539056 2182341.1717216386
S3 393938.24150539056  2182340.186921638
S3  393936.9284053904  2182340.186921638
S3  393935.6154053913  2182340.186921638
S3  393934.3023053912  2182340.186921638
S3  393934.3023053912 2182339.2021216378
S3  393934.3023053912 2182338.2174216383
S3 393932.33280539134 2182338.2174216383
S3 393932.33280539134  2182337.232621638
S3 393932.33280539134 2182336.2478216398
S3  393931.0197053912 2182336.2478216398
S3  393929.7067053899 2182336.2478216398
S3 393928.39370539074 2182336.2478216398
S3 393928.39370539074  2182334.278221639
S3  393926.4241053899  2182334.278221639
S3  393926.4241053899 2182333.2935216394
S3  393926.4241053899  2182332.308721639
S3 393925.11110539077  2182332.308721639
S3  393923.7980053906  2182332.308721639
S3  393922.4850053915  2182332.308721639
S3  393922.4850053915 2182331.3239216385
S3  393922.4850053893 2182330.3391216383
S3  393920.5154053929 2182330.3391216383
S3 393918.54590539087 2182330.3391216383
S3 393918.54590539087 2182328.3696216387
S3  393916.5763053901 2182328.3696216387
S3  393916.5763053901  2182327.384821638
S3  393916.5763053901  2182326.400021638
S3 393915.26330539095  2182326.400021638
S3  393913.9502053908  2182326.400021638
S3 393912.63720538944  2182326.400021638
S3 393912.63720539166 2182324.4304216392
S3 393910.66760539083 2182324.4304216392
S3 393910.66760539083   2182323.44572164
S3 393910.66760539083  2182322.460921639
S3 393909.35460539174  2182322.460921639
S3  393908.0415053916  2182322.460921639
S3 393906.72850539023  2182322.460921639
S3 393906.72850539023  2182321.476121639
S3 393906.72850539244  2182320.491321638
S3 393905.74370538985  2182320.491321638
S3  393904.7589053894  2182320.491321638
S3  393904.7589053916 2182318.5218216386
S3 393902.78940538963 2182318.5218216386
S3   393900.819805391 2182318.5218216386
S3   393900.819805391 2182317.5370216384
S3   393900.819805391 2182316.5522216377
S3  393899.8350053906 2182316.5522216377
S3  393898.8503053912   2182316.55222164
S3   393898.850305389   2182315.56742164
S3  393898.8503053912  2182314.582621639
S3 393896.88070539036  2182314.582621639
S3  393894.9111053896  2182314.582621639
S3  393894.9111053918 2182312.6131216395
S3 393892.94160539197 2182312.6131216395
S3 393892.94160538976  2182311.628321639
S3 393892.94160538976 2182310.6435216386
S3  393891.6285053896 2182310.6435216386
S3 393890.31550539046 2182310.6435216386
S3 393889.00250539137 2182310.6435216386
S3 393889.00250539137  2182308.674021639
S3 393887.03290539054  2182308.674021639
S3 393887.03290539276 2182307.6892216383
S3 393887.03290539054  2182306.704421638
S3  393885.7199053914  2182306.704421638
S3 393884.40680539125  2182306.704421638
S3 393883.09380539216 2182306.7044216404
S3 393883.09380538994 2182305.7196216397
S3 393883.09380538994 2182304.7348216395
S3  393881.1242053891 2182304.7348216395
S3 393881.12420539133 2182303.7501216377
S3  393881.1242053891 2182302.7653216375
S3 393879.81120538997 2182302.7653216375
S3 393878.49810539203 2182302.7653216394
S3  393877.1851053907 2182302.7653216394
S3  393877.1851053907  2182300.795721639
S3  393875.2155053899  2182300.795721639
S3  393873.2460053923  2182300.795721639
S3  393873.2460053901 2182299.8109216383
S3  393873.2460053901  2182298.826221639
S3  393872.2612053919  2182298.826221639
S3 393871.27640539146  2182298.826221639
S3 393871.27640539146  2182297.002821639
S3 393871.27640538925 2182296.8566216403
S3  393870.8148053912  2182296.856621638
S3  393869.3069053917  2182296.856621638
S3 393867.33730539086  2182296.856621638
S3 393867.33730538865 2182295.8718216377
S3 393867.33730539086 2182295.7556216386
S3 393867.33730539086 2182294.8870216394
S3  393866.3525053904 2182294.8870216394
S3 393865.36770539224 2182294.8870216375
S3 393865.36770539003  2182293.902321638
S3 393865.36770539224 2182292.9175216397
S3 393863.39820539026 2182292.9175216397
S3 393861.42860539164 2182292.9175216397
S3 393861.42860539164 2182291.9327216395
S3 393861.42860539164  2182290.947921639
S3 393860.44390539225  2182290.947921639
S3  393859.4591053896  2182290.947921639
S3  393859.4591053896  2182288.978421639
S3   393857.489505391  2182288.978421639
S3  393855.5200053912  2182288.978421639
S3  393855.5200053912 2182287.9936216385
S3  393855.5200053912 2182287.0088216383
S3 393854.53520539077 2182287.0088216383
S3  393853.5504053904 2182287.0088216383
S3  393853.5504053904  2182286.024021638
S3  393853.5504053904 2182285.0392216397
S3 393851.58080538956 2182285.0392216397
S3   393849.611305392 2182285.0392216374
S3   393849.611305392 2182283.0697216378
S3 393848.62650538934 2182283.0697216378
S3  393847.6417053912 2182283.0697216378
S3  393847.6417053912 2182282.0849216394
S3  393847.6417053912  2182281.100121637
S3 393845.67220539134  2182281.100121637
S3  393843.7026053906  2182281.100121639
S3  393843.7026053906  2182279.130621639
S3 393841.73300538975  2182279.130621637
S3 393841.73300539196  2182278.145821639
S3 393841.73300538975 2182277.1610216387
S3 393840.74830539036 2182277.1610216387
S3  393839.7635053921 2182277.1610216387
S3  393839.7635053899  2182276.176221638
S3  393839.7635053899  2182275.191421638
S3  393837.7939053913  2182275.191421638
S3  393837.7939053913 2182274.2067216383
S3  393837.7939053913 2182273.2219216377
S3  393835.8244053915 2182273.2219216377
S3  393835.8244053915  2182271.252321639
S3  393834.8396053911  2182271.252321639
S3  393833.8548053907  2182271.252321639
S3  393833.8548053907  2182270.267521639
S3  393833.8548053907 2182269.2828216394
S3  393831.8852053899 2182269.2828216394
S3  393831.8852053921 2182267.3132216386
S3  393830.5722053907 2182267.3132216386
S3 393829.25920539163 2182267.3132216386
S3  393827.9461053893 2182267.3132216386
S3  393827.9461053915 2182266.3284216383
S3  393827.9461053915 2182265.3436216377
S3 393825.97660539165   2182265.34362164
S3 393825.97660539165  2182264.358921638
S3 393825.97660539165 2182263.3741216403
S3  393824.0070053908  2182263.374121638
S3  393824.0070053908  2182262.389321638
S3  393824.0070053908 2182261.4045216395
S3  393822.0374053878 2182261.4045216395
S3 393822.03740539006   2182259.43502164
S3 393821.05270539067   2182259.43502164
S3  393820.0679053902 2182259.4350216375
S3  393820.0679053902  2182258.450221639
S3  393820.0679053902  2182257.465421639
S3  393818.0983053916  2182257.465421639
S3  393818.0983053894 2182255.4958216404
S3 393817.11350539123 2182255.4958216404
S3 393816.12880539184  2182255.495821638
S3  393816.1288053896 2182254.5111216386
S3 393816.12880539184 2182253.5263216384
S3   393814.159205391 2182253.5263216402
S3   393814.159205391 2182252.5415216377
S3   393814.159205391 2182251.5567216375
S3  393812.1896053902 2182251.5567216394
S3  393812.1896053902 2182249.5872216397
S3  393811.2049053908 2182249.5872216397
S3  393810.2201053904 2182249.5872216397
S3  393810.2201053904 2182248.6024216395
S3  393810.2201053904  2182247.617621639
S3  393808.2505053896  2182247.617621639
S3  393808.2505053918 2182246.6328216386
S3  393808.2505053918  2182245.648021638
S3 393806.28100538976 2182245.6480216403
S3 393806.28100539197 2182243.6785216383
S3 393804.31140539114 2182243.6785216383
S3 393804.31140539114  2182242.693721638
S3 393804.31140539114 2182241.7089216397
S3 393803.32660539076 2182241.7089216397
S3  393802.3418053904 2182241.7089216397
S3  393802.3418053904  2182240.724221638
S3  393802.3418053904 2182239.7394216377
S3 393800.37230539054 2182239.7394216377
S3 393800.37230539054  2182237.769821639
S3  393798.4027053919  2182237.769821639
S3  393798.4027053897 2182236.7850216385
S3  393798.4027053897 2182235.8003216395
S3 393797.41790538933 2182235.8003216395
S3 393796.43320538994  2182235.800321637
S3 393796.43320538994 2182233.8307216386
S3  393794.4636053913 2182233.8307216386
S3  393792.4940053927 2182233.8307216386
S3  393792.4940053905  2182232.845921638
S3  393792.4940053905   2182231.86112164
S3  393791.5093053911   2182231.86112164
S3  393790.5245053907 2182231.8611216377
S3  393790.5245053907 2182230.8764216383
S3  393790.5245053907 2182229.8916216376
S3  393788.5549053899   2182229.89162164
S3  393788.5549053899 2182228.9068216397
S3  393788.5549053899  2182227.922021639
S3 393786.58540539007  2182227.922021639
S3 393786.58540539007 2182225.9525216394
S3 393784.61580539146 2182225.9525216394
S3 393784.61580538924  2182224.967721639
S3 393784.61580539146 2182223.9829216385
S3  393783.6310053911 2182223.9829216385
S3  393782.6462053906 2182223.9829216385
S3  393782.6462053906   2182222.01332164
S3 393780.67670539086   2182222.01332164
S3 393780.67670539086  2182221.028621638
S3 393780.67670539086 2182220.0438216403
S3    393778.70710539 2182220.0438216403
S3    393778.70710539 2182219.0590216396
S3    393778.70710539 2182218.0742216394
S3 393777.72230538965 2182218.0742216394
S3 393776.73760539026 2182218.0742216394
S3 393776.73760539026 2182217.0894216388
S3 393776.73760539026   2182216.10472164
S3 393774.76800538943   2182216.10472164
S3 393774.76800539164  2182214.135121639
S3  393773.7832053912  2182214.135121639
S3  393772.7984053908  2182214.135121639
S3  393772.7984053908  2182213.150321638
S3  393772.7984053908 2182212.1655216403
S3   393770.828905391 2182212.1655216403
S3   393770.828905391 2182210.1960216383
S3  393769.4052053909 2182210.1960216383
S3  393768.8593053902 2182210.1960216383
S3  393768.8593053902 2182209.2112216377
S3  393768.8593053902  2182209.021821638
S3  393768.8593053902 2182208.2264216393
S3  393768.4896053879 2182208.2264216393
S3  393766.8898053926 2182208.2264216393
S3  393766.8898053904  2182207.241621639
S3  393766.8898053904 2182206.2569216397
S3    393765.90500539 2182206.2569216397
S3 393764.92020539177 2182206.2569216397
S3 393764.92020539177  2182204.287321639
S3  393762.9506053932  2182204.287321639
S3 393762.95060539094 2182203.3025216386
S3 393762.95060539094  2182202.317721638
S3 393760.98110539117  2182202.317721638
S3 393760.98110539117  2182201.333021639
S3 393760.98110539117 2182200.3482216382
S3  393759.9963053908 2182200.3482216382
S3 393759.01150539034 2182200.3482216382
S3 393759.01150539034  2182199.363421638
S3 393759.01150539034 2182198.3786216397
S3 393757.04200539057 2182198.3786216397
S3 393757.04200539057 2182196.4091216377
S3 393755.07240539195 2182196.4091216377
S3 393755.07240538974 2182195.4243216394
S3 393755.07240538974 2182194.5581216384
S3 393755.07240539195  2182194.439521639
S3  393754.8888053913  2182194.439521639
S3  393754.0876053915  2182194.439521639
S3  393753.1028053911  2182194.439521639
S3  393753.1028053911  2182193.286221639
S3  393753.1028053911 2182192.4699216383
S3 393751.83880538767 2182192.4699216383
S3  393751.1333053913 2182192.4699216383
S3  393751.1333053913  2182192.014421638
S3  393751.1333053913  2182191.485221639
S3  393751.1333053913 2182190.5004216386
S3  393749.1637053905 2182190.5004216386
S3  393749.1637053905 2182188.5308216377
S3  393747.1942053907 2182188.5308216377
S3  393747.1942053907 2182187.5460216394
S3  393747.1942053907   2182186.56132164
S3  393746.2094053903   2182186.56132164
S3 393745.22460538987   2182186.56132164
S3 393745.22460538987  2182184.591721639
S3 393743.25500539126  2182184.591721639
S3 393743.25500539126  2182183.606921639
S3 393743.25500539126 2182182.6221216386
S3  393741.2855053915 2182182.6221216386
S3  393741.2855053915 2182180.6526216385
S3 393740.30070539104 2182180.6526216385
S3 393739.31590539066 2182180.6526216385
S3 393739.31590539066 2182179.6678216383
S3 393739.31590539066   2182178.68302164
S3  393737.3464053909   2182178.68302164
S3  393737.3464053886  2182176.713521638
S3 393735.37680539006  2182176.713521638
S3 393735.37680539227 2182175.7287216377
S3 393735.37680539006 2182174.7439216394
S3  393734.3920053896 2182174.7439216394
S3 393733.40720539144 2182174.7439216394
S3 393733.40720539144  2182173.759121639
S3 393733.40720538923 2182172.7743216385
S3  393731.4377053916 2182172.7743216385
S3  393731.4377053916  2182171.789621639
S3  393731.4377053916  2182170.804821639
S3 393729.46810539084  2182170.804821639
S3 393729.46810539084  2182168.835221638
S3  393728.4833053904  2182168.835221638
S3   393727.498605391  2182168.835221638
S3   393727.498605391 2182167.8504216378
S3  393727.4986053888 2182166.8657216383
S3  393725.5290053902 2182166.8657216383
S3  393725.5290053902 2182164.8961216398
S3  393723.5595053904 2182164.8961216374
S3  393723.5595053904  2182163.911321639
S3  393723.5595053904  2182162.926521639
S3 393722.57470538997  2182162.926521639
S3  393721.5899053896  2182162.926521639
S3  393721.5899053918 2182161.9418216394
S3  393721.5899053896 2182160.9570216388
S3 393719.62030539097 2182160.9570216388
S3 393719.62030539097 2182158.9874216383
S3  393717.6508053912 2182158.9874216383
S3  393717.6508053912 2182158.0026216377
S3  393717.6508053912  2182157.017921638
S3 393716.66600539075  2182157.017921638
S3 393715.68120539037  2182157.017921638
S3 393715.68120539037  2182156.033121638
S3 393715.68120539037 2182155.0483216373
S3 393713.71170539054 2182155.0483216397
S3  393711.7421053919 2182155.0483216397
S3  393711.7421053897 2182154.0635216394
S3  393711.7421053919  2182153.078721639
S3  393709.7725053911  2182153.078721639
S3 393709.77250539337  2182151.109221639
S3  393708.7878053895  2182151.109221639
S3  393707.8030053913  2182151.109221639
S3  393707.8030053913  2182150.124421639
S3  393707.8030053913  2182149.139621638
S3  393705.8334053905  2182149.139621638
S3  393705.8334053905 2182147.5217598802
S3  393281.5956051117  2182135.441493461
S3 393240.96990538976 2182138.4242216386
S3 393215.50110539165  2182157.028921637
S3 393181.24650539097  2182152.768721639
S3 393152.64050539245   2182156.32702164
S3  393095.4205053894   2182174.32512164
S3 393041.52310539014  2182223.978421639
S3  393032.0576053901 2182228.4242216386
S3 393011.52310539025 2182213.4242216386
S3  392993.4235053915  2182205.798521639
S3 392973.74650539056  2182191.201321639
S3 392968.74650539056  2182191.201321639
S3  392963.7465053906  2182191.201321639
S3  392963.7465053906  2182196.201321639
S3  392963.7465053906  2182201.201321639
S3  392958.7465053906  2182201.201321639
S3  392953.7465053906  2182201.201321639
S3  392953.7465053906  2182206.201321639
S3  392953.7465053906  2182211.201321639
S3  392953.7465053906  2182216.201321639
S3  392953.7465053906 2182221.2013216387
S3  392948.7465053906 2182221.2013216387
S3  392943.7465053907 2182221.2013216387
S3  392943.7465053907 2182226.2013216387
S3  392943.7465053907 2182231.2013216387
S3  392938.7465053907 2182231.2013216387
S3  392933.7465053907 2182231.2013216387
S3  392933.7465053907 2182236.2013216387
S3  392933.7465053907 2182241.2013216387
S3  392933.7465053907 2182246.2013216387
S3  392933.7465053907 2182251.2013216387
S3 392928.74650539074 2182251.2013216387
S3 392923.74650539074 2182251.2013216387
S3 392923.74650539074 2182256.2013216387
S3 392923.74650539074 2182261.2013216387
S3 392923.74650539074 2182266.2013216387
S3 392923.74650539074 2182271.2013216387
S3 392918.74650539074 2182271.2013216387
S3  392913.7465053908 2182271.2013216387
S3  392913.7465053908 2182276.2013216387
S3  392913.7465053908 2182281.2013216387
S3  392913.7465053908 2182286.2013216387
S3  392913.7465053908 2182291.2013216387
S3  392908.7465053908 2182291.2013216387
S3  392903.7465053908 2182291.2013216387
S3  392903.7465053908 2182296.2013216387
S3  392903.7465053908 2182301.2013216387
S3  392898.7465053908 2182301.2013216387
S3 392893.74650539085 2182301.2013216387
S3 392893.74650539085 2182306.2013216387
S3 392893.74650539085 2182311.2013216387
S3 392893.74650539085 2182316.2013216387
S3 392888.74650539085 2182316.2013216387
S3 392888.74650539085 2182321.2013216387
S3 392883.74650539085 2182321.2013216387
S3 392883.74650539085 2182326.2013216387
S3 392883.74650539085 2182331.2013216387
S3 392883.74650539085 2182336.2013216387
S3 392883.74650539085 2182341.2013216387
S3  392896.5231053929  2182343.424221638
S3  392914.0166053898 2182356.2037216383
S3 392924.17050539167  2182425.968121638
S3 392908.50790539104 2182452.6124216383
S3 392888.74650539085  2182466.201321638
S3 392888.74650539085  2182471.201321638
S3 392888.74650539085   2182491.20132164
S3 392891.56840539083 2182493.3790216385
S3  392905.9225053894 2182511.9764216403
S3 392934.15150539106  2182523.529221638
S3  392951.5684053928  2182528.379021638
S3 392981.00300539075 2182554.0919216387
S3  392985.9246053883 2182591.4173216377
S3  392964.7234053904 2182604.0980216386
S3 392954.67750539083  2182628.642721638
S3  392912.1462053904  2182633.841721638
S3  392898.7465053908 2182651.2013216396
S3 392901.10590539244  2182663.841721638
S3  392907.0010053906 2182680.2711216384
S3  392883.7265053912 2182695.0734216385
S3  392875.0546053911 2182723.1569216396
S3  392846.1059053904 2182728.5609216387
S3  392811.3871053895 2182753.8417216376
S3 392743.34840539034 2182759.1676216396
S3 392723.74650539143  2182766.201321639
S3 392720.38710538985 2182772.8419216378
S3  392713.7465053915  2182776.201321639
S3 392709.97800538986   2182791.54432164
S3 392717.47390538914 2182815.7264216384
S3 392712.65160538955  2182837.237721639
S3  392726.7043053896  2182868.243521638
S3 392728.74650539143 2182876.2013216387
S3  392743.8377053911 2182878.8270216384
S3 392746.97741472477 2182882.7480740454
S3   393496.926133121  2182906.691842144
S3  394188.5969672984 2182695.4055084046
S4 394633.29717865464  2182281.100145929
S4 394675.18384736765  2182221.370417898
S4  394677.9686518596  2182175.203528846
S4 394483.80950439995  2182169.674803618
S4 394483.80950439995  2182170.804802059
S4  394484.7942842589  2182170.804802059
S4 394485.77906411345  2182170.804802059
S4 394485.77906411345  2182171.789581923
S4 394485.77906411345 2182172.7743617725
S4  394487.7486238247 2182172.7743617725
S4  394487.7486238269 2182173.7591416314
S4  394487.7486238269  2182174.743921486
S4  394489.7181835382  2182174.743921486
S4 394489.71818353597  2182175.728701345
S4  394489.7181835382  2182176.713481202
S4  394491.6877432472 2182176.7134811995
S4  394491.6877432494 2182178.6830409085
S4 394492.67252310395 2182178.6830409085
S4  394493.6573029607 2182178.6830409085
S4  394493.6573029607  2182179.667820772
S4  394493.6573029629  2182180.652600624
S4  394495.6268626719  2182180.652600624
S4 394495.62686267414 2182182.6221603355
S4 394497.59642238315 2182182.6221603355
S4 394497.59642238537  2182183.606940192
S4 394497.59642238537 2182184.5917200446
S4  394498.5812022399 2182184.5917200446
S4 394499.56598209887 2182184.5917200446
S4 394499.56598209665  2182186.561279756
S4  394501.5355418079  2182186.561279756
S4  394501.5355418079  2182187.546059615
S4  394501.5355418079  2182188.530839474
S4  394503.5051015191  2182188.530839474
S4  394503.5051015191  2182190.500399185
S4  394505.4746612304  2182190.500399185
S4  394505.4746612304 2182191.4851790396
S4  394505.4746612326  2182192.469958894
S4 394506.45944108715  2182192.469958894
S4 394507.44422094384  2182192.469958894
S4 394507.44422094605 2182194.4395186054
S4 394509.41378065734  2182194.439518603
S4 394509.41378065513 2182195.4242984643
S4 394509.41378065734 2182196.4090783168
S4 394511.38334036636 2182196.4090783168
S4 394511.38334036636 2182198.3786380254
S4  394512.3681202231 2182198.3786380254
S4 394513.35290008207 2182198.3786380254
S4 394513.35290007986 2182199.3634178843
S4 394513.35290008207  2182200.348197739
S4  394515.3224597911  2182200.348197739
S4  394515.3224597911  2182201.332977598
S4  394515.3224597933 2182202.3177574547
S4 394516.30723964784 2182202.3177574547
S4 394517.29201950453 2182202.3177574547
S4  394517.2920195068 2182203.3025373113
S4  394517.2920195068  2182204.287317166
S4 394519.26157921803  2182204.287317166
S4  394519.2615792158  2182206.256876877
S4 394521.23113892705  2182206.256876877
S4 394521.23113892705  2182207.241656736
S4 394521.23113892705 2182208.2264365884
S4  394522.2159187838 2182208.2264365884
S4 394523.20069864276 2182208.2264365884
S4 394523.20069864055 2182209.2112164474
S4 394523.20069864276  2182210.195996302
S4  394525.1702583518  2182210.195996302
S4  394525.1702583518  2182212.165556011
S4  394527.1398180652  2182212.165556011
S4  394527.1398180652  2182213.150335872
S4  394527.1398180652  2182214.135115727
S4  394529.1093777765  2182214.135115727
S4  394529.1093777743 2182216.1046754336
S4   394530.094157631 2182216.1046754336
S4 394531.07893748773 2182216.1046754336
S4 394531.07893748773 2182217.0894552968
S4 394531.07893748773  2182218.074235147
S4 394533.04849720123  2182218.074235147
S4   394533.048497199  2182219.059015006
S4   394533.048497199 2182220.0437948606
S4 394535.01805691246 2182220.0437948606
S4  394536.9876166215 2182220.0437948606
S4  394536.9876166237 2182221.0285747196
S4  394536.9876166237  2182222.013354576
S4 394537.97239648044  2182222.013354576
S4   394538.957176335  2182222.013354574
S4  394538.9571763372 2182223.9829142853
S4  394540.9267360462 2182223.9829142853
S4  394542.8962957597 2182223.9829142853
S4  394542.8962957597 2182224.9676941372
S4 394542.89629575744  2182225.952473996
S4  394543.8810756164  2182225.952473996
S4 394544.86585547094  2182225.952473996
S4 394544.86585547094 2182227.9220337053
S4 394546.83541518217 2182227.9220337076
S4 394548.80497489567 2182227.9220337076
S4 394548.80497489346 2182228.9068135666
S4 394548.80497489346  2182229.891593419
S4 394550.11801470467  2182229.891593419
S4  394551.4310545136  2182229.891593419
S4  394552.7440943182  2182229.891593419
S4  394552.7440943182  2182230.876373278
S4  394552.7440943204 2182231.8611531323
S4  394554.7136540316 2182231.8611531323
S4  394554.7136540316  2182232.845932996
S4  394554.7136540294  2182233.830712848
S4  394556.0266938384  2182233.830712848
S4 394557.33973364736  2182233.830712848
S4 394558.65277345636  2182233.830712848
S4 394558.65277345415 2182235.8002725593
S4  394560.6223331654 2182235.8002725593
S4  394560.6223331654  2182236.785052414
S4  394560.6223331676 2182237.7698322684
S4  394561.9353729744 2182237.7698322684
S4  394563.2484127834 2182237.7698322684
S4  394564.5614525901 2182237.7698322684
S4  394564.5614525901 2182239.7393919774
S4  394565.8744923991 2182239.7393919798
S4 394567.18753220805 2182239.7393919798
S4 394568.50057201704 2182239.7393919798
S4 394568.50057201483 2182240.7241718387
S4 394568.50057201704 2182241.7089516907
S4 394570.47013172606 2182241.7089516907
S4 394570.47013172606 2182242.6937315497
S4 394570.47013172606 2182243.6785114086
S4 394572.43969143956 2182243.6785114086
S4  394574.4092511486 2182243.6785114086
S4  394574.4092511486 2182245.6480711135
S4 394575.39403100754 2182245.6480711135
S4   394576.378810862 2182245.6480711135
S4  394576.3788108665 2182246.6328509725
S4   394576.378810862  2182247.617630829
S4  394578.3483705755  2182247.617630827
S4 394580.31793028454  2182247.617630829
S4 394580.31793028454  2182248.602410688
S4 394580.31793028454 2182249.5871905405
S4  394581.3027101413 2182249.5871905405
S4 394582.28748999804  2182249.587190547
S4 394582.28748999804  2182251.556750249
S4 394584.25704970927  2182251.556750249
S4  394586.2266094205  2182251.556750249
S4  394586.2266094205  2182252.541530108
S4  394586.2266094205  2182253.526309963
S4  394587.5396492295  2182253.526309963
S4  394588.8526890385  2182253.526309963
S4 394590.16572884744  2182253.526309963
S4  394590.1657288452  2182254.511089822
S4 394590.16572884744 2182255.4958696784
S4  394592.1352885587  2182255.495869676
S4  394592.1352885587   2182257.46542939
S4 394593.44832836546   2182257.46542939
S4 394594.76136817667   2182257.46542939
S4 394596.07440798345   2182257.46542939
S4 394596.07440798124 2182258.4502092465
S4 394596.07440798124  2182259.434989101
S4  394598.0439676925  2182259.434989101
S4  394598.0439676925   2182261.40454881
S4  394599.3570075037   2182261.40454881
S4  394600.6700473104   2182261.40454881
S4  394601.9830871194   2182261.40454881
S4  394601.9830871194  2182262.389328671
S4  394601.9830871194 2182263.3741085213
S4 394603.95264682843 2182263.3741085213
S4 394603.95264682843   2182264.35888838
S4 394603.95264682843 2182265.3436682345
S4 394605.26568663964 2182265.3436682345
S4  394606.5787264464 2182265.3436682345
S4 394607.89176625316  2182265.343668237
S4  394607.8917662554 2182266.3284480935
S4  394607.8917662554 2182267.3132279483
S4  394609.8613259644 2182267.3132279483
S4  394611.8308856757 2182267.3132279506
S4  394611.8308856757 2182269.2827876573
S4 394612.81566553464 2182269.2827876573
S4  394613.8004453891 2182269.2827876573
S4  394613.8004453891 2182270.2675675205
S4  394613.8004453891 2182271.2523473706
S4  394615.7700051004 2182271.2523473706
S4 394617.73956481164 2182271.2523473706
S4 394617.73956481164  2182273.221907082
S4  394618.7243446684  2182273.221907082
S4 394619.70912452735  2182273.221907082
S4  394619.7091245251  2182274.206686941
S4  394619.7091245251 2182275.1914667934
S4 394621.67868423637 2182275.1914667934
S4  394623.6482439498 2182275.1914667934
S4  394623.6482439476 2182276.1762466524
S4  394623.6482439476 2182277.1610265067
S4  394624.9612837566 2182277.1610265067
S4  394626.2743235633 2182277.1610265067
S4 394627.58736337454 2182277.1610265067
S4  394627.5873633723 2182278.1458063703
S4  394627.5873633723   2182279.13058622
S4 394629.55692308134   2182279.13058622
S4 394629.55692308355  2182281.100145929
S4 394630.86996289477 2182281.1001459314
S4 394632.18300269934  2182281.100145929
S4 394633.29717865464  2182281.100145929
S5  394373.5141605322  2182636.358688643
S5  394373.5141605344  2182635.620894081
S5  394372.2011207232 2182635.6208940786
S5  394370.8880809187  2182635.620894081
S5  394369.5750411075  2182635.620894081
S5  394369.5750411075 2182633.6513343696
S5  394368.2620012985 2182633.6513343696
S5 394366.94896149175 2182633.6513343696
S5 394365.63592168497 2182633.6513343696
S5 394365.63592168497 2182632.6665545194
S5 394365.63592168275 2182631.6817746563
S5 394363.66636197374 2182631.6817746563
S5 394361.69680226024 2182631.6817746563
S5 394361.69680226024 2182630.6969948015
S5 394361.69680226024 2182629.7122149426
S5  394360.3837624513 2182629.7122149426
S5  394359.0707226467 2182629.7122149426
S5 394357.75768283557 2182629.7122149426
S5 394357.75768283557 2182628.7274350906
S5 394357.75768283557 2182627.7426552293
S5  394355.7881231243 2182627.7426552293
S5 394353.81856341305 2182627.7426552293
S5 394353.81856341305   2182625.77309552
S5 394352.50552360626   2182625.77309552
S5  394351.1924837973   2182625.77309552
S5  394349.8794439883   2182625.77309552
S5  394349.8794439883   2182624.78831567
S5  394349.8794439883  2182623.803535809
S5  394348.5664041793 2182623.8035358065
S5  394347.2533643704  2182623.803535809
S5  394345.9403245636  2182623.803535809
S5  394345.9403245636  2182621.833976098
S5 394343.97076485236  2182621.833976098
S5 394342.00120514334  2182621.833976098
S5 394342.00120514334  2182620.849196239
S5 394342.00120514334  2182619.864416389
S5 394340.68816533434  2182619.864416389
S5 394339.37512552756  2182619.864416389
S5  394338.0620857164  2182619.864416389
S5  394338.0620857164   2182618.87963653
S5  394338.0620857186  2182617.894856671
S5  394336.0925260073  2182617.894856671
S5  394336.0925260051 2182616.9100768184
S5  394336.0925260073 2182615.9252969595
S5  394334.7794861961 2182615.9252969595
S5  394333.4664463894 2182615.9252969595
S5 394332.15340658487 2182615.9252969595
S5  394332.1534065826  2182613.955737248
S5 394330.84036677587  2182613.955737248
S5 394329.52732696687  2182613.955737248
S5 394328.21428715566  2182613.955737248
S5 394328.21428715566  2182612.970957389
S5  394328.2142871579  2182611.986177539
S5  394326.2447274444  2182611.986177539
S5  394324.2751677332  2182611.986177539
S5  394324.2751677332  2182610.016617828
S5  394322.9621279242  2182610.016617828
S5 394321.64908811747  2182610.016617828
S5 394320.33604830847  2182610.016617828
S5  394320.3360483107 2182609.0318379714
S5  394320.3360483107 2182608.0470581125
S5 394318.36648859724 2182608.0470581125
S5 394316.39692888595 2182608.0470581125
S5 394316.39692888595 2182606.0774984076
S5  394315.0838890792 2182606.0774984076
S5   394313.770849268 2182606.0774984076
S5  394312.4578094612 2182606.0774984076
S5  394312.4578094612 2182605.0927185486
S5  394312.4578094612 2182604.1079386896
S5    394310.48824975 2182604.1079386896
S5   394308.518690041 2182604.1079386896
S5   394308.518690041  2182603.123158837
S5   394308.518690041 2182602.1383789764
S5   394307.205650232 2182602.1383789764
S5   394305.892610423 2182602.1383789764
S5 394304.57957061625 2182602.1383789787
S5 394304.57957061403 2182601.1535991216
S5 394304.57957061625 2182600.1688192626
S5 394303.26653080946  2182600.168819265
S5  394301.9534910005 2182600.1688192626
S5  394300.6404511893 2182600.1688192626
S5  394300.6404511893  2182598.199259558
S5  394299.3274113803  2182598.199259558
S5  394298.0143715758  2182598.199259558
S5  394296.7013317668  2182598.199259558
S5  394296.7013317646 2182597.2144796993
S5  394296.7013317646 2182596.2296998403
S5 394294.73177205556 2182596.2296998403
S5 394292.76221234427 2182596.2296998403
S5 394292.76221234206  2182595.244919986
S5 394292.76221234206  2182594.260140127
S5 394291.44917253754  2182594.260140127
S5 394290.13613273075  2182594.260140127
S5  394288.8230929196  2182594.260140127
S5  394288.8230929196  2182592.290580418
S5  394286.8535332083  2182592.290580418
S5 394284.88397349487  2182592.290580418
S5 394284.88397349487 2182591.3058005655
S5  394284.8839734971  2182590.321020704
S5  394283.8991936381  2182590.321020704
S5  394282.9144137836 2182590.3210207066
S5  394282.9144137836  2182588.351460995
S5 394280.94485407014  2182588.351460995
S5 394278.97529435885  2182588.351460995
S5 394278.97529435885  2182587.366681145
S5 394278.97529435885  2182586.381901282
S5 394277.99051450216  2182586.381901284
S5  394277.0057346454  2182586.381901284
S5  394277.0057346454  2182585.397121427
S5  394277.0057346454  2182584.412341568
S5  394275.0361749342  2182584.412341568
S5  394275.0361749342  2182583.427561716
S5  394275.0361749364  2182582.442781857
S5  394273.0666152229  2182582.442781855
S5 394271.09705551167  2182582.442781857
S5 394271.09705551167  2182580.473222146
S5  394270.1122756571  2182580.473222146
S5 394269.12749579817  2182580.473222146
S5 394269.12749579817 2182579.4884422957
S5 394269.12749580044 2182578.5036624325
S5 394267.15793608694 2182578.5036624325
S5 394267.15793608694 2182576.5341027235
S5  394265.1883763757 2182576.5341027253
S5  394265.1883763779 2182575.5493228687
S5  394265.1883763779 2182574.5645430097
S5  394263.8753365689 2182574.5645430097
S5  394262.5622967599 2182574.5645430097
S5 394261.24925694877 2182574.5645430097
S5  394261.2492569532 2182573.5797631554
S5   394261.249256951 2182572.5949832965
S5  394259.2796972397 2182572.5949832965
S5  394259.2796972397 2182571.6102034464
S5 394259.27969724196  2182570.625423585
S5  394258.2949173852 2182570.6254235827
S5 394257.31013752625  2182570.625423585
S5 394257.31013752625  2182568.655863874
S5 394255.34057781723  2182568.655863874
S5 394253.37101810594  2182568.655863874
S5 394253.37101810373  2182567.671084015
S5 394253.37101810373  2182566.686304165
S5 394252.38623824925  2182566.686304165
S5  394251.4014583925  2182566.686304165
S5  394251.4014583903 2182564.7167444513
S5   394249.431898679 2182564.7167444513
S5   394249.431898679  2182563.731964597
S5  394249.4318986835  2182562.747184738
S5  394247.4623389678  2182562.747184738
S5  394247.4623389678 2182561.7624048833
S5  394247.4623389678 2182560.7776250243
S5 394246.14929916325 2182560.7776250243
S5 394244.83625935426 2182560.7776250243
S5 394243.52321954304 2182560.7776250243
S5 394243.52321954526 2182558.8080653152
S5   394241.553659834 2182558.8080653152
S5   394241.553659834  2182557.823285461
S5  394241.5536598318 2182556.8385056043
S5 394240.56887997506 2182556.8385056043
S5  394239.5841001183 2182556.8385056043
S5  394239.5841001183 2182555.8537257477
S5  394239.5841001205 2182554.8689458887
S5  394237.6145404071 2182554.8689458906
S5 394235.64498069807 2182554.8689458887
S5 394235.64498069586  2182552.899386184
S5 394233.67542098457  2182552.899386184
S5 394233.67542098457  2182551.914606325
S5  394233.6754209868  2182550.929826466
S5  394232.6906411301  2182550.929826466
S5  394231.7058612711  2182550.929826466
S5  394231.7058612711 2182549.9450466116
S5  394231.7058612711  2182548.960266755
S5 394229.73630155984  2182548.960266755
S5 394229.73630155984 2182546.9907070436
S5  394228.4232617509 2182546.9907070436
S5  394227.1102219463 2182546.9907070436
S5  394225.7971821374 2182546.9907070436
S5  394225.7971821351  2182546.005927191
S5  394225.7971821351 2182545.0211473345
S5  394223.8276224239 2182545.0211473345
S5  394223.8276224239 2182543.0515876208
S5 394221.85806271265 2182543.0515876208
S5 394221.85806271265 2182542.0668077623
S5 394221.85806271265 2182541.0820279033
S5 394220.54502290365 2182541.0820279033
S5 394219.23198309913 2182541.0820279033
S5  394217.9189432879 2182541.0820279033
S5 394217.91894329013  2182539.112468194
S5  394215.9493835789  2182539.112468194
S5  394215.9493835789 2182538.1276883394
S5  394215.9493835789  2182537.142908483
S5  394213.9798238676  2182537.142908483
S5  394213.9798238654 2182535.1733487714
S5  394212.9950440109 2182535.1733487714
S5 394212.01026415196 2182535.1733487714
S5  394212.0102641542 2182534.1885689213
S5  394212.0102641542  2182533.203789058
S5  394210.6972243452  2182533.203789058
S5 394209.38418453396  2182533.203789058
S5   394208.071144725  2182533.203789058
S5 394208.07114472723 2182531.2342293514
S5  394206.1015850182 2182531.2342293514
S5  394206.1015850182 2182530.2494494943
S5  394206.1015850182 2182529.2646696377
S5  394204.1320253069 2182529.2646696377
S5  394204.1320253047  2182528.279889781
S5  394204.1320253047  2182527.295109922
S5   394202.818985498  2182527.295109922
S5  394201.5059456912  2182527.295109922
S5  394200.1929058822  2182527.295109922
S5  394200.1929058822  2182526.310330072
S5    394200.19290588 2182525.3255502107
S5 394198.22334617097 2182525.3255502107
S5 394198.22334616876 2182523.3559904997
S5 394196.25378645747 2182523.3559904997
S5 394196.25378645747  2182522.371210645
S5 394196.25378645974  2182521.386430786
S5  394195.2690066008  2182521.386430786
S5   394194.284226744  2182521.386430786
S5   394194.284226744 2182519.4168710792
S5  394192.3146670328 2182519.4168710792
S5  394190.3451073215 2182519.4168710792
S5   394190.345107326 2182518.4320912226
S5  394190.3451073215 2182517.4473113636
S5 394189.36032746703 2182517.4473113636
S5 394188.37554760807 2182517.4473113636
S5 394188.37554760807  2182516.462531509
S5 394188.37554760807 2182515.4777516504
S5  394186.4059878968 2182515.4777516504
S5  394186.4059878968 2182513.5081919413
S5 394185.09294809005 2182513.5081919413
S5 394183.77990827884 2182513.5081919413
S5  394182.4668684721 2182513.5081919413
S5  394182.4668684721  2182512.523412089
S5  394182.4668684721   2182511.53863223
S5  394180.4973087608 2182511.5386322276
S5 394180.49730876304 2182510.5538523733
S5  394180.4973087608 2182509.5690725143
S5  394178.5277490496 2182509.5690725143
S5  394178.5277490496 2182507.5995128094
S5  394176.5581893383 2182507.5995128094
S5  394176.5581893406 2182506.6147329505
S5  394176.5581893406 2182505.6299530915
S5  394175.2451495316 2182505.6299530915
S5  394173.9321097248 2182505.6299530915
S5 394172.61906991364 2182505.6299530915
S5 394172.61906991364 2182504.6451732395
S5 394172.61906991585  2182503.660393378
S5 394170.64951020235 2182503.6603933806
S5 394170.64951020456  2182501.690833669
S5 394169.66473034787  2182501.690833669
S5  394168.6799504889  2182501.690833669
S5  394168.6799504889 2182500.7060538167
S5  394168.6799504889   2182499.72127396
S5  394167.3669106799   2182499.72127396
S5  394166.0538708709   2182499.72127396
S5  394164.7408310642   2182499.72127396
S5  394164.7408310642  2182498.736494101
S5  394164.7408310642  2182497.751714242
S5 394162.77127135295  2182497.751714242
S5 394162.77127135516 2182496.7669343897
S5 394162.77127135516  2182495.782154531
S5 394160.80171164166  2182495.782154531
S5 394160.80171164166   2182493.81259482
S5 394159.48867183714   2182493.81259482
S5 394158.17563202593   2182493.81259482
S5 394156.86259221914   2182493.81259482
S5 394156.86259221693 2182492.8278149674
S5 394156.86259221693 2182491.8430351107
S5  394154.8930325079 2182491.8430351107
S5  394154.8930325079  2182489.873475397
S5  394152.9234727967  2182489.873475397
S5  394152.9234727967 2182488.8886955385
S5  394152.9234727967 2182487.9039156837
S5  394151.9386929377 2182487.9039156837
S5  394150.9539130832 2182487.9039156837
S5   394150.953913081 2182486.9191358294
S5   394150.953913081 2182485.9343559705
S5 394148.98435336974 2182485.9343559705
S5 394147.01479365845 2182485.9343559705
S5 394147.01479365845 2182483.9647962614
S5 394146.03001380176 2182483.9647962614
S5   394145.045233945 2182483.9647962614
S5   394145.045233945 2182482.9800164066
S5   394145.045233945 2182481.9952365477
S5  394143.0756742337 2182481.9952365477
S5  394143.0756742337 2182481.0104566975
S5   394143.075674236 2182480.0256768344
S5  394141.1061145247 2182480.0256768344
S5 394139.13655481127 2182480.0256768344
S5 394139.13655481127 2182478.0561171276
S5  394138.1517749545 2182478.0561171276
S5 394137.16699510225 2182478.0561171276
S5 394137.16699509777 2182477.0713372706
S5 394137.16699509777  2182476.086557412
S5 394135.19743538654  2182476.086557412
S5 394135.19743538654  2182474.116997705
S5  394133.2278756775  2182474.116997705
S5  394133.2278756775  2182473.132217848
S5  394133.2278756775 2182472.1474379892
S5  394131.9148358685 2182472.1474379892
S5  394130.6017960573 2182472.1474379892
S5  394129.2887562506 2182472.1474379892
S5  394129.2887562506  2182471.162658137
S5  394129.2887562506  2182470.177878276
S5  394127.3191965415  2182470.177878278
S5  394127.3191965393  2182468.208318567
S5  394126.3344166826  2182468.208318567
S5 394125.34963682585  2182468.208318567
S5 394125.34963682585 2182467.2235387145
S5 394125.34963682806 2182466.2387588555
S5 394123.38007711683 2182466.2387588555
S5 394121.41051740333 2182466.2387588555
S5 394121.41051740554  2182465.253978999
S5 394121.41051740554   2182464.26919914
S5 394120.42573754885   2182464.26919914
S5  394119.4409576921   2182464.26919914
S5  394119.4409576899  2182463.284419285
S5  394119.4409576899 2182462.2996394266
S5  394117.4713979808 2182462.2996394266
S5  394117.4713979808 2182460.3300797176
S5  394115.5018382674 2182460.3300797176
S5  394115.5018382674  2182459.345299865
S5  394115.5018382674  2182458.360520006
S5 394114.18879846286  2182458.360520006
S5 394112.87575865164  2182458.360520006
S5 394111.56271884264  2182458.360520004
S5 394111.56271884264 2182456.3909602948
S5  394109.5931591314 2182456.3909602948
S5  394109.5931591336  2182455.406180443
S5  394109.5931591314 2182454.4214005857
S5  394107.6235994201 2182454.4214005857
S5  394107.6235994201 2182453.4366207267
S5 394107.62359942234 2182452.4518408678
S5  394106.3105596134 2182452.4518408678
S5  394104.9975198044 2182452.4518408678
S5  394103.6844799954 2182452.4518408678
S5  394103.6844799954  2182451.467061016
S5  394103.6844799954  2182450.482281157
S5 394101.71492028417  2182450.482281157
S5 394101.71492028417 2182448.5127214454
S5 394100.73014042963 2182448.5127214454
S5  394099.7453605707 2182448.5127214454
S5 394099.74536057294  2182447.527941593
S5  394099.7453605707 2182446.5431617363
S5 394097.77580086165 2182446.5431617363
S5 394097.77580085944  2182444.573602025
S5  394095.8062411482  2182444.573602025
S5  394093.8366814392  2182444.573602025
S5   394093.836681437 2182443.5888221683
S5   394093.836681437 2182442.6040423093
S5 394092.85190158023 2182442.6040423093
S5  394091.8671217235 2182442.6040423093
S5  394091.8671217235  2182441.619262455
S5  394091.8671217235  2182440.634482596
S5  394089.8975620167  2182440.634482596
S5 394087.92800230096  2182440.634482596
S5 394087.92800230096  2182438.664922887
S5  394086.9432224443  2182438.664922887
S5  394085.9584425875  2182438.664922887
S5  394085.9584425875  2182437.680143032
S5 394085.95844258973 2182436.6953631733
S5  394083.9888828785 2182436.6953631733
S5  394082.0193231672 2182436.6953631733
S5  394082.0193231672 2182435.7105833236
S5  394082.0193231672   2182434.72580346
S5 394081.03454331274   2182434.72580346
S5  394080.0497634538   2182434.72580346
S5  394080.0497634538 2182432.7562437532
S5  394078.7367236448 2182432.7562437532
S5  394077.4236838358 2182432.7562437532
S5 394076.11064402683 2182432.7562437532
S5 394076.11064402683 2182431.7714638966
S5 394076.11064402683 2182430.7866840377
S5 394074.14108431776 2182430.7866840377
S5 394074.14108431776  2182428.817124331
S5  394072.1715246065  2182428.817124331
S5  394070.2019648953  2182428.817124331
S5  394070.2019648931  2182427.832344474
S5  394070.2019648931  2182426.847564615
S5 394069.21718503634  2182426.847564615
S5  394068.2324051818  2182426.847564615
S5  394068.2324051796  2182425.862784763
S5  394068.2324051796  2182424.878004904
S5 394066.26284546836  2182424.878004904
S5 394064.29328575934  2182424.878004904
S5 394064.29328575934  2182423.893225047
S5 394064.29328575707   2182422.90844519
S5  394063.3085059026 2182422.9084451883
S5  394062.3237260436 2182422.9084451883
S5  394062.3237260436  2182420.938885481
S5  394060.3541663346 2182420.9388854792
S5  394058.3846066211 2182420.9388854792
S5  394058.3846066211 2182419.9541056245
S5  394058.3846066211  2182418.969325768
S5  394056.4150469099 2182418.9693257655
S5  394056.4150469099  2182417.984545911
S5  394056.4150469099 2182416.9997660522
S5  394055.1020071009 2182416.9997660522
S5 394053.78896729636  2182416.999766054
S5 394052.47592748515  2182416.999766054
S5 394052.47592748515  2182415.030206343
S5 394051.16288767837  2182415.030206343
S5  394049.8498478694  2182415.030206343
S5  394048.5368080604  2182415.030206343
S5  394048.5368080604 2182414.0454264907
S5  394048.5368080604 2182413.0606466318
S5  394046.5672483492 2182413.0606466318
S5  394046.5672483492  2182412.075866775
S5  394046.5672483492  2182411.091086916
S5  394045.2542085424  2182411.091086916
S5  394043.9411687312  2182411.091086916
S5 394042.62812892447  2182411.091086916
S5  394042.6281289267 2182409.1215272117
S5  394041.3230991179 2182409.1215244266
S5 394047.10432920913  2182420.046521536
S5  394057.5763063823 2182429.7499061087
S5 394082.58439995983 2182441.5516350144
S5 394096.15112093376  2182485.074609625
S5  394084.1613978858 2182519.2823414574
S5 394109.99892535317  2182535.968136966
S5  394133.8325844332  2182561.690815091
S5  394125.0567907578 2182586.7286359887
S5  394131.7375185646 2182599.3544022003
S5 394151.34188836464 2182608.6061066915
S5  394166.1511209335  2182618.796521537
S5  394192.7348257926   2182635.96324556
S5 394201.15112093335  2182653.796521537
S5 394206.34188836446 2182663.6061066934
S5 394211.15112093335  2182673.796521537
S5   394219.278891444 2182685.6083112354
S5  394373.5141605322  2182636.358688643
S6 395393.99062418466 2181607.1508532623
S6 395393.33080480393 2181606.5421905634
S6 395334.10600480746 2181560.7652905607
S6  395288.1148048041  2181524.244290561
S6  395265.3915048062 2181498.8242905606
S6 395257.98873313825 2181488.6541359746
S6  395239.1097332155 2181502.3834444555
S6  395242.6984000037  2181530.224600003
S6 395246.91730000015 2181562.9721000036
S6  395258.8042861527 2181768.1067657443
S6 395393.99062418466 2181607.1508532623
S7 395863.13757290697 2181048.5738812033
S7 395257.98873313825 2181488.6541359746
S7  395265.3915048062 2181498.8242905606
S7  395288.1148048041  2181524.244290561
S7 395334.10600480746 2181560.7652905607
S7 395393.33080480393 2181606.5421905634
S7 395393.99062418466 2181607.1508532623
S7 395863.13757290697 2181048.5738812033
S8  394908.4651470071 2182271.2528667087
S8   395015.468495052 2181943.2726187403
S8  395011.2251416025  2181939.481335885
S8  395004.7285595722  2181904.675427684
S8  394956.3292065437 2181893.5474979966
S8 394939.72276123223 2181894.5374882314
S8  394888.2469311516  2181888.507214797
S8  394877.0903149406  2181864.198132763
S8  394866.1570874032 2181863.5474979966
S8  394854.9247591711  2181866.555374722
S8   394842.849592284 2181869.7889530724
S8  394831.3871899414 2181863.5609257347
S8 394813.27592285053  2181855.247937449
S8 394808.28677110124  2181850.790472754
S8 394698.65492514457 2182154.0942589194
S8 394881.14108043944 2182286.3022804074
S8  394908.4651470071 2182271.2528667087
S10 394675.18384736765  2182221.370417898
S10 394633.29717865464  2182281.100145929
S10  394633.4960425105  2182281.100145929
S10  394633.4960425105 2182282.0849257903
S10  394633.4960425083 2182283.0697056428
S10  394635.4656022218 2182283.0697056428
S10 394635.46560221957 2182285.0392653537
S10  394636.7786420307 2182285.0392653537
S10  394638.0916818397 2182285.0392653537
S10 394639.40472164424 2182285.0392653537
S10 394639.40472164424  2182286.024045211
S10  394639.4047216487  2182287.008825065
S10 394641.37428135774  2182287.008825065
S10 394641.37428135995  2182287.993604924
S10  394641.3742813555  2182288.978384783
S10 394642.68732116674  2182288.978384783
S10 394644.00036097347  2182288.978384783
S10 394645.31340078247  2182288.978384783
S10 394645.31340078247 2182290.9479444874
S10  394647.2829604915 2182290.9479444874
S10  394649.2525202027 2182290.9479444874
S10  394649.2525202027 2182291.9327243464
S10  394649.2525202027 2182292.9175042035
S10 394650.23730005947 2182292.9175042035
S10  394651.2220799162 2182292.9175042035
S10  394651.2220799184   2182293.90228406
S10  394651.2220799162 2182294.8870639144
S10 394653.19163962745 2182294.8870639144
S10 394655.16119933873 2182294.8870639144
S10 394655.16119933873 2182295.8718437734
S10 394655.16119933873 2182296.8566236324
S10 394656.14597919764 2182296.8566236324
S10  394657.1307590522 2182296.8566236324
S10  394657.1307590522 2182298.8261833373
S10  394659.1003187634 2182298.8261833373
S10  394661.0698784747 2182298.8261833373
S10  394661.0698784747  2182299.810963196
S10  394661.0698784747  2182300.795743053
S10 394662.05465833144 2182300.7957430505
S10 394663.03943818813  2182300.795743053
S10 394663.03943818813 2182302.7653027643
S10  394665.0089978994 2182302.7653027643
S10 394666.97855761286 2182302.7653027643
S10 394666.97855761065  2182303.750082621
S10 394666.97855761065  2182304.734862473
S10 394668.29159741744  2182304.734862473
S10  394669.6046372286  2182304.734862473
S10  394670.9176770354  2182304.734862473
S10  394670.9176770354  2182305.719642332
S10  394670.9176770376 2182306.7044221866
S10  394672.8872367488 2182306.7044221866
S10  394672.8872367488 2182307.6892020456
S10  394672.8872367466  2182308.673981902
S10  394674.2002765556    2182308.6739819
S10  394675.5133163646  2182308.673981902
S10 394676.82635617355  2182308.673981902
S10 394676.82635617134 2182310.6435416136
S10 394678.79591588484 2182310.6435416136
S10 394678.79591588484   2182311.62832147
S10 394678.79591588484 2182312.6131013245
S10 394680.76547559607 2182312.6131013227
S10  394682.7350353051 2182312.6131013227
S10  394682.7350353051 2182314.5826610336
S10  394684.0480751141 2182314.5826610317
S10  394685.3611149231 2182314.5826610336
S10  394686.6741547298 2182314.5826610336
S10   394686.674154732  2182315.567440895
S10   394686.674154732  2182316.552220745
S10  394688.6437144433  2182316.552220745
S10 394690.61327415676  2182316.552220745
S10  394692.5828338658  2182316.552220745
S10  394692.5828338658  2182317.537000604
S10  394692.5828338658 2182318.5217804583
S10   394694.060003652 2182318.5217804583
S10 394695.53717343375 2182318.5217804606
S10    394697.01434322 2182318.5217804583
S10 394698.49151300173 2182318.5217804583
S10 394698.49151300173 2182320.4913401674
S10 394699.96868278575 2182320.4913401674
S10 394701.44585256977 2182320.4913401674
S10 394702.92302235594 2182320.4913401674
S10 394704.40019213775 2182320.4913401674
S10 394704.40019213775 2182321.4761200263
S10 394704.40019213775  2182322.460899881
S10  394705.8773619217 2182322.4608998834
S10  394707.3545317057  2182322.460899881
S10  394708.8317014897  2182322.460899881
S10  394710.3088712759 2182322.4608998834
S10  394710.3088712737 2182323.4456797442
S10  394710.3088712759 2182324.4304595944
S10 394711.78604105767 2182324.4304595944
S10  394713.2632108417 2182324.4304595944
S10  394714.7403806257 2182324.4304595944
S10  394716.2175504119 2182324.4304595944
S10 394716.21755040967 2182326.4000193058
S10  394717.6947201981 2182326.4000193058
S10 394719.17188997765 2182326.4000193034
S10 394720.64905976166 2182326.4000193058
S10  394722.1262295479 2182326.4000193058
S10  394722.1262295456 2182327.3847991647
S10  394722.1262295479  2182328.369579017
S10 394723.60339932964  2182328.369579017
S10  394725.0805691159  2182328.369579017
S10 394726.55773889984  2182328.369579017
S10 394728.03490868385  2182328.369579017
S10 394728.03490868385  2182330.339138726
S10  394730.0044683929  2182330.339138726
S10  394731.9740281041  2182330.339138726
S10  394733.9435878176  2182330.339138726
S10 394735.91314752883  2182330.339138726
S10 394735.91314752883 2182331.3239185847
S10 394735.91314752883 2182332.3086984395
S10 394737.39031731285 2182332.3086984395
S10  394738.8674870968 2182332.3086984395
S10  394740.3446568808 2182332.3086984395
S10  394741.8218266648 2182332.3086984395
S10  394741.8218266648 2182333.2934782985
S10  394741.8218266648  2182334.278258155
S10  394743.2989964488  2182334.278258155
S10  394744.7761662328  2182334.278258155
S10   394746.253336019  2182334.278258155
S10 394747.73050579854  2182334.278258155
S10  394747.7305058008  2182336.247817862
S10 394749.20767558477  2182336.247817862
S10   394750.684845371  2182336.247817862
S10 394752.16201515275  2182336.247817862
S10  394753.0771761902  2182336.247817862
S10 394675.18384736765  2182221.370417898
S11  395233.9305432265  2181449.596200566
S11 395229.66864322644  2181429.138400566
S11 395213.44074322644 2181406.4483005656
S11  395184.9049432265  2181351.910600566
S11  395177.0408432265  2181321.564900566
S11 395176.79184322647  2181305.988400566
S11 395187.05604322645  2181264.929200566
S11  395207.5970432265  2181211.663800566
S11 395219.40704322647 2181167.8054005657
S11  395224.6401432265 2181125.2259005657
S11 395228.22424322646 2181082.1577005656
S11  395231.8632432265 2181034.1623005657
S11  395237.0789432265 2180917.3356005657
S11 395244.96144322644 2180826.0357005657
S11  395257.5592432265  2180780.556200566
S11  395281.9622432265  2180708.114200566
S11 395336.91664322646 2180549.5313005657
S11 395364.85394322645 2180475.3082005656
S11  395410.8718432265  2180382.024100566
S11 395450.15454322647  2180303.081300566
S11  395445.8375432265 2180306.5382005656
S11  395428.7465432265 2180316.2013005656
S11 395417.17604322644  2180329.631500566
S11 395395.34624322644 2180348.4389005657
S11 395347.09304322646 2180353.9699005657
S11 395340.65014322643  2180382.330500566
S11 395302.56604322646  2180415.141700566
S11 395296.43234322645 2180428.8869005656
S11 395285.18814322643 2180444.7462005657
S11  395245.8851432265 2180456.5785005656
S11 395231.43234322645  2180448.515800566
S11 395214.44324322644 2180440.9340005657
S11 395206.43234322645 2180458.8869005656
S11  395190.6178432265 2180479.0809005657
S11 395172.58804322645  2180488.515800566
S11 395146.59534322645 2180470.0856005657
S11 395141.43234322645  2180458.515800566
S11  395118.7465432265 2180431.2013005656
S11  395101.1058432265 2180428.8417005655
S11 395082.82704322645 2180416.0744005656
S11  395036.2465432265 2180418.8502005655
S11 395017.94724322646  2180417.760100566
S11 394971.38714322646 2180453.8417005655
S11  394961.0615432265 2180458.5609005657
S11  394898.7465432265 2180451.2013005656
S11 394879.91314322647 2180437.4025005656
S11  394853.4575432265 2180439.5277005658
S11 394831.43234322645 2180488.8869005656
S11 394826.06064322643  2180498.515800566
S11 394821.43234322645 2180513.8869005656
S11 394816.06064322643  2180523.515800566
S11 394810.56104322645  2180571.487000566
S11  394794.6632432265  2180599.981800566
S11 394769.69434322644  2180630.167400566
S11 394776.43234322645  2180648.515800566
S11 394785.27454322646  2180677.883400566
S11 394801.43234322645  2180698.515800566
S11 394806.06064322643 2180738.8869005656
S11 394816.53064322646  2180763.748900566
S11 394803.83104322647 2180781.6591005656
S11  394769.8152432265 2180791.9008005657
S11 394751.43234322645  2180816.288000566
S11 394756.64814322646 2180881.2013005656
S11  394756.0457432265 2180888.7013005656
S11 394758.07784322643 2180913.9918005657
S11  394816.2504432265 2180929.8268005657
S11  394858.0406432265  2180922.249900566
S11  394870.5015432265  2180963.637800566
S11 394881.43234322645  2180968.515800566
S11 394892.29264322645 2180997.1339005656
S11 394901.80984322645 2181014.1920005656
S11 394900.50954322645  2181030.374900566
S11 394891.06064322643  2181038.515800566
S11 394886.28254322644 2181064.7084005657
S11 394876.06064322643  2181073.515800566
S11 394871.43234322645 2181078.8869005656
S11 394856.06064322643  2181083.515800566
S11 394851.43234322645 2181088.8869005656
S11 394820.03254322644 2181096.0206005657
S11 394790.51714322646 2181137.1254005656
S11  394791.6362432265 2181151.0499005658
S11 394819.86224322644  2181159.548500566
S11  394810.7063432265 2181184.4801005656
S11  394811.7857432265  2181197.910300566
S11 394781.06064322643  2181203.515800566
S11 394768.76934322645 2181210.3724005655
S11  394773.3448432265 2181267.3170005656
S11 394746.06064322643  2181273.515800566
S11 394735.00014322647  2181279.686400566
S11 394726.43234322645 2181298.8869005656
S11 394721.06064322643  2181308.515800566
S11 394716.43234322645 2181318.8869005656
S11  394713.7465432265 2181321.2013005656
S11 394711.38714322646 2181338.8417005655
S11  394691.6865432265  2181370.709400566
S11 394702.51204322645  2181390.631200566
S11  394716.5629432265 2181403.1849005655
S11 394709.32844322646  2181430.196700566
S11  394688.2649432265 2181439.8646005658
S11 394656.80224322644 2181437.9896005658
S11 394649.37124322646  2181444.086600566
S11 394770.58294322644 2181486.5299005657
S11 394885.95964322647  2181499.267200566
S11 394892.20174322644  2181499.872500566
S11  395120.6277432265  2181521.930900566
S11  395200.9782432265  2181530.113700566
S11  395214.0507432265 2181531.4450005656
S11 395242.69844322646 2181530.2246005656
S11 395239.10974322644  2181502.383400566
S11 395257.98874322645 2181488.6541005657
S11  395251.8298432265 2181480.1928005656
S11  395233.9305432265  2181449.596200566
S12 395823.74650960916 2180311.2012811205
S12 395823.74650960916 2180311.2012811205
S12  395822.0348096095   2180317.29748112
S12 395817.65030960954 2180312.9127811203
S12 395823.74650960916 2180311.2012811205
S12 395823.74650960916 2180311.2012811205
S12  395821.7043096096  2180298.243581119
S12  395813.7465096092 2180286.2012811187
S12  395798.7465096093 2180286.2012811187
S12  395798.7465096093 2180266.2012811187
S12  395798.7465096093 2180261.2012811187
S12  395798.7465096093 2180256.2012811187
S12  395793.7465096093 2180256.2012811187
S12  395793.7465096093 2180251.2012811187
S12  395793.7465096093 2180246.2012811187
S12  395788.7465096093 2180246.2012811187
S12 395783.74650960934 2180246.2012811187
S12 395773.74650960934 2180246.2012811187
S12  395768.7465096094 2180246.2012811187
S12  395763.7465096094 2180246.2012811187
S12  395761.7043096098  2180249.159081119
S12 395742.41750960925  2180253.243581119
S12 395713.74650960957 2180246.2012811187
S12  395698.7465096096 2180246.2012811187
S12  395693.7465096096 2180246.2012811187
S12  395688.7465096096 2180246.2012811187
S12  395683.7465096097 2180246.2012811187
S12  395678.7465096097 2180246.2012811187
S12  395673.7465096097 2180246.2012811187
S12 395668.74650960974 2180246.2012811187
S12 395663.74650960974 2180246.2012811187
S12 395658.74650960974 2180246.2012811187
S12  395653.7465096098 2180246.2012811187
S12  395648.7465096098 2180246.2012811187
S12 395646.12960961106 2180267.1229811194
S12  395638.5350096089  2180278.424181118
S12  395616.2465096088  2180265.323581118
S12  395593.9275096107 2180278.4424811183
S12 395571.54280961095  2180283.424181118
S12 395530.71180960716 2180271.7652811194
S12  395516.5230096091  2180263.424181118
S12  395498.7465096103 2180261.2012811187
S12  395493.7465096081 2180261.2012811187
S12  395488.7465096103 2180261.2012811187
S12  395484.6764096082   2180275.43718112
S12 395450.15452719555  2180303.081291423
S12  395410.8718048057 2180382.0240905597
S12  395364.8539048054  2180475.308190561
S12 395336.91660480545 2180549.5312905624
S12  395281.9622048066 2180708.1141905603
S12 395257.55920480675   2180780.55619056
S12 395244.96140480525  2180826.035690561
S12 395237.07890480675 2180917.3355905614
S12  395231.8632048052 2181034.1622905633
S12  395228.2242048054  2181082.157690563
S12  395224.6401048059  2181125.225890561
S12  395219.4070048045   2181167.80539056
S12 395207.59700480604  2181211.663790559
S12  395187.0560048043  2181264.929190561
S12  395176.7918048055  2181305.988390563
S12 395177.04080480477   2181321.56489056
S12  395184.9049048043 2181351.9105905597
S12  395213.4407048063 2181406.4482905613
S12 395229.66860320215  2181429.138393707
S12  395233.9305048032 2181449.5961905615
S12 395251.82980480423 2181480.1927905595
S12 395257.98873313825 2181488.6541359746
S12 395863.13757290697 2181048.5738812033
S12  395900.0088845752 2181011.1512764418
S12 395920.45101400575 2180894.2962566917
S12  395945.4898827678 2180385.6828904436
S12   395945.301352435 2180231.2012811187
S12 395943.74650960875 2180231.2012811187
S12 395938.74650960875 2180231.2012811187
S12  395933.7465096088 2180231.2012811187
S12  395928.7465096088 2180231.2012811187
S12   395923.746509611 2180231.2012811187
S12  395918.7465096111 2180231.2012811187
S12 395913.74650960887 2180231.2012811187
S12  395908.7465096111 2180231.2012811187
S12 395903.74650960887 2180231.2012811187
S12  395898.7465096089 2180231.2012811187
S12  395893.7465096089 2180231.2012811187
S12  395888.7465096089 2180231.2012811187
S12  395883.7465096112 2180231.2012811187
S12   395878.746509609 2180231.2012811187
S12  395836.1513096119  2180278.606081119
S12 395831.34170961083   2180288.79648112
S12 395828.74650960916  2180291.201281118
S12 395828.74650960916  2180311.201281118
S12 395823.74650960916 2180311.2012811205
S13  394983.6494812983 2182321.5296840332
S13  394908.4651812983 2182271.2527840333
S13  394881.1410812983  2182286.302284033
S13  394698.6549812983  2182154.094184033
S13  394677.9686812983 2182175.2034840332
S13  394675.1838812983 2182221.3703840333
S13  394753.0771812983 2182336.2477840334
S13  394753.6391812983 2182336.2477840334
S13  394753.6391812983  2182337.076684033
S13  394753.6391812983  2182337.232584033
S13  394753.6391812983 2182338.2173840334
S13  394754.4126812983 2182338.2173840334
S13  394755.1163812983 2182338.2173840334
S13  394756.5935812983 2182338.2173840334
S13 394758.07068129827 2182338.2173840334
S13  394759.5478812983 2182338.2173840334
S13  394759.5478812983 2182339.2020840333
S13  394759.5478812983  2182340.186884033
S13  394761.0250812983  2182340.186884033
S13  394762.5021812983  2182340.186884033
S13  394763.9793812983  2182340.186884033
S13  394765.4565812983  2182340.186884033
S13  394765.4565812983 2182341.1716840332
S13  394765.4565812983 2182342.1564840334
S13 394767.42608129827 2182342.1564840334
S13  394769.3956812983 2182342.1564840334
S13  394771.3652812983 2182342.1564840334
S13  394771.3652812983  2182344.125984033
S13  394772.8423812983  2182344.125984033
S13  394774.3195812983  2182344.125984033
S13  394775.7967812983  2182344.125984033
S13  394777.2738812983  2182344.125984033
S13  394777.2738812983 2182345.1107840333
S13  394777.2738812983  2182346.095584033
S13  394778.7510812983  2182346.095584033
S13  394780.2282812983  2182346.095584033
S13  394781.7053812983  2182346.095584033
S13  394783.1825812983  2182346.095584033
S13  394783.1825812983  2182348.065184033
S13  394785.1521812983  2182348.065184033
S13  394787.1216812983  2182348.065184033
S13  394789.0912812983  2182348.065184033
S13  394789.0912812983 2182349.0498840334
S13  394789.0912812983  2182350.034684033
S13  394790.5684812983  2182350.034684033
S13  394792.0455812983  2182350.034684033
S13  394793.5227812983  2182350.034684033
S13  394794.9999812983  2182350.034684033
S13  394794.9999812983 2182351.0194840333
S13  394794.9999812983  2182352.004284033
S13  394796.4770812983  2182352.004284033
S13 394797.95428129827  2182352.004284033
S13  394799.4314812983  2182352.004284033
S13  394800.9086812983  2182352.004284033
S13  394800.9086812983 2182352.9890840333
S13  394800.9086812983  2182353.973784033
S13  394802.3857812983  2182353.973784033
S13  394803.8629812983  2182353.973784033
S13  394805.3401812983  2182353.973784033
S13  394806.8172812983  2182353.973784033
S13  394806.8172812983  2182355.943384033
S13  394808.2944812983  2182355.943384033
S13 394809.77168129827  2182355.943384033
S13  394811.2487812983  2182355.943384033
S13  394812.7259812983  2182355.943384033
S13  394812.7259812983 2182356.9281840334
S13  394812.7259812983  2182357.912984033
S13  394814.2031812983  2182357.912984033
S13  394815.6803812983  2182357.912984033
S13  394817.1574812983  2182357.912984033
S13  394818.6346812983  2182357.912984033
S13  394818.6346812983 2182359.8824840332
S13  394820.6042812983 2182359.8824840332
S13  394822.5737812983 2182359.8824840332
S13  394823.9193812983 2182359.8824840332
S13  394824.5433812983 2182359.8824840332
S13  394824.5433812983 2182360.8672840334
S13  394824.5433812983  2182361.852084033
S13 394826.02048129827  2182361.852084033
S13  394827.4976812983  2182361.852084033
S13  394828.9748812983  2182361.852084033
S13  394830.4520812983  2182361.852084033
S13  394830.4520812983  2182362.836784033
S13  394830.4520812983 2182363.8215840333
S13  394831.9291812983 2182363.8215840333
S13  394833.4063812983 2182363.8215840333
S13  394834.8835812983 2182363.8215840333
S13  394836.3606812983 2182363.8215840333
S13  394836.3606812983 2182365.7911840333
S13 394837.83788129827 2182365.7911840333
S13  394839.3150812983 2182365.7911840333
S13  394840.7921812983 2182365.7911840333
S13  394842.2693812983 2182365.7911840333
S13  394842.2693812983  2182366.775984033
S13  394842.2693812983 2182367.7606840334
S13  394843.7465812983 2182367.7606840334
S13  394845.2237812983 2182367.7606840334
S13  394846.7008812983 2182367.7606840334
S13  394848.1780812983 2182367.7606840334
S13  394848.1780812983  2182368.745484033
S13  394848.1780812983 2182369.7302840333
S13 394849.65528129827 2182369.7302840333
S13  394851.1323812983 2182369.7302840333
S13  394852.6095812983 2182369.7302840333
S13  394854.0867812983 2182369.7302840333
S13  394854.0867812983 2182371.6998840333
S13  394855.5638812983 2182371.6998840333
S13  394857.0410812983 2182371.6998840333
S13  394858.5182812983 2182371.6998840333
S13  394859.9953812983 2182371.6998840333
S13  394859.9953812983  2182372.684584033
S13  394859.9953812983 2182373.6693840334
S13  394861.4725812983 2182373.6693840334
S13  394862.9497812983 2182373.6693840334
S13  394864.4269812983 2182373.6693840334
S13  394865.9040812983 2182373.6693840334
S13  394865.9040812983  2182374.654184033
S13  394865.9040812983 2182375.6389840334
S13  394867.3812812983 2182375.6389840334
S13  394868.8584812983 2182375.6389840334
S13  394870.3355812983 2182375.6389840334
S13  394871.8127812983 2182375.6389840334
S13  394871.8127812983  2182377.608484033
S13  394873.7823812983  2182377.608484033
S13  394875.7518812983  2182377.608484033
S13  394877.7214812983  2182377.608484033
S13  394879.6909812983  2182377.608484033
S13  394879.6909812983 2182378.5932840332
S13  394879.6909812983 2182379.5780840334
S13  394881.1681812983 2182379.5780840334
S13  394882.6453812983 2182379.5780840334
S13  394884.1225812983 2182379.5780840334
S13  394885.5996812983 2182379.5780840334
S13  394885.5996812983  2182380.562884033
S13  394885.5996812983 2182381.5476840334
S13  394887.0768812983 2182381.5476840334
S13  394888.5540812983 2182381.5476840334
S13  394890.0311812983 2182381.5476840334
S13  394891.5083812983 2182381.5476840334
S13  394891.5083812983  2182383.517184033
S13  394893.4779812983  2182383.517184033
S13  394895.4474812983  2182383.517184033
S13  394897.4170812983  2182383.517184033
S13  394897.4170812983 2182384.5019840333
S13  394897.4170812983  2182385.486784033
S13  394899.3865812983  2182385.486784033
S13 394901.35618129827  2182385.486784033
S13  394903.3257812983  2182385.486784033
S13  394903.3257812983  2182386.471584033
S13  394903.3257812983  2182387.456284033
S13  394904.8028812983  2182387.456284033
S13  394906.2800812983  2182387.456284033
S13  394907.7572812983  2182387.456284033
S13  394909.2343812983  2182387.456284033
S13  394909.2343812983  2182389.425884033
S13 394910.71158129827  2182389.425884033
S13  394912.1887812983  2182389.425884033
S13  394913.6659812983  2182389.425884033
S13  394915.1430812983  2182389.425884033
S13  394915.1430812983 2182390.4106840333
S13  394915.1430812983  2182391.395484033
S13  394917.1126812983  2182391.395484033
S13  394919.0821812983  2182391.395484033
S13  394921.0517812983  2182391.395484033
S13  394921.0517812983 2182392.3801840334
S13  394921.0517812983  2182393.364984033
S13 394922.52898129827  2182393.364984033
S13  394924.0060812983  2182393.364984033
S13  394925.4832812983  2182393.364984033
S13  394926.9604812983  2182393.364984033
S13  394926.9604812983  2182395.334584033
S13  394928.4375812983  2182395.334584033
S13  394929.9147812983  2182395.334584033
S13  394931.3919812983  2182395.334584033
S13  394932.8691812983  2182395.334584033
S13  394932.8691812983 2182396.3193840333
S13  394932.8691812983 2182397.3040840332
S13  394934.3462812983 2182397.3040840332
S13  394935.8234812983 2182397.3040840332
S13  394937.3006812983 2182397.3040840332
S13 394938.77778129827 2182397.3040840332
S13 394938.77778129827 2182398.2888840334
S13 394938.77778129827  2182399.273684033
S13  394940.2549812983  2182399.273684033
S13  394941.7321812983  2182399.273684033
S13  394943.2092812983  2182399.273684033
S13  394944.6864812983  2182399.273684033
S13  394944.6864812983  2182401.243284033
S13  394946.1636812983  2182401.243284033
S13  394947.6408812983  2182401.243284033
S13  394949.1179812983  2182401.243284033
S13 394950.59518129827  2182401.243284033
S13 394950.59518129827  2182402.227984033
S13 394950.59518129827 2182403.2127840333
S13  394952.5647812983 2182403.2127840333
S13  394954.5342812983 2182403.2127840333
S13  394956.5038812983 2182403.2127840333
S13  394956.5038812983  2182405.182384033
S13  394957.9809812983  2182405.182384033
S13  394959.4581812983  2182405.182384033
S13  394960.9353812983  2182405.182384033
S13  394961.5652812983  2182405.182384033
S13  394983.6494812983 2182321.5296840332
S14  394818.3556678338  2182828.215226785
S14  394748.5297678338  2182813.659226785
S14 394769.23736783385  2182831.650226785
S14 394770.80106783385 2182834.9414267847
S14 394785.28906783386 2182865.4349267846
S14  394876.1216678338 2182980.6717267847
S14 394992.70466783387 2182888.1246267846
S14  395019.2599678339 2182868.4488267847
S14  394818.3556678338  2182828.215226785
S15  394748.5297999979  2182813.659200001
S15 394663.53259999794 2182779.4965000004
S15 394590.95560000004 2182743.0462000044
S15 394570.52420000144 2182732.7819000003
S15  394467.4730666665  2182681.023199999
S15  394466.0834576953 2182680.1176300757
S15  394466.0834669921  2182680.920767457
S15  394466.0834669921 2182682.8903271663
S15  394464.1139072808 2182682.8903271663
S15 394464.11390728306 2182683.8751070253
S15 394464.11390728306   2182684.85988688
S15 394462.14434757177   2182684.85988688
S15 394462.14434756956 2182683.8751070253
S15 394462.14434756956 2182682.8903271663
S15 394460.83130776056 2182682.8903271663
S15  394459.5182679538 2182682.8903271663
S15 394458.20522814704 2182682.8903271663
S15 394458.20522814704 2182681.9055473143
S15 394458.20522814704 2182680.9207674554
S15  394456.2356684358 2182680.9207674554
S15  394456.2356684336  2182678.951207744
S15  394454.9226286268  2182678.951207744
S15 394453.60958881787  2182678.951207744
S15  394452.2965490111  2182678.951207744
S15 394452.29654900887  2182677.966427894
S15  394452.2965490111 2182676.9816480326
S15 394450.32698929764 2182676.9816480326
S15 394448.35742958635 2182676.9816480326
S15 394448.35742958635  2182675.996868176
S15 394448.35742958635  2182675.012088317
S15  394447.3726497341  2182675.012088317
S15  394446.3878698729  2182675.012088317
S15  394446.3878698751 2182673.0425286125
S15  394444.4183101639 2182673.0425286125
S15  394442.4487504504 2182673.0425286125
S15  394442.4487504504 2182672.0577487536
S15  394442.4487504504 2182671.0729688946
S15  394441.1357106436 2182671.0729688946
S15  394439.8226708369 2182671.0729688946
S15 394438.50963102566 2182671.0729688946
S15 394438.50963102566  2182670.088189042
S15 394438.50963102566  2182669.103409181
S15 394437.19659121666  2182669.103409183
S15  394435.8835514077  2182669.103409183
S15 394434.57051160093  2182669.103409183
S15 394434.57051160093  2182667.133849472
S15  394432.6009518919  2182667.133849472
S15  394430.6313921785  2182667.133849472
S15  394430.6313921807  2182666.149069613
S15  394430.6313921785 2182665.1642897627
S15  394429.3183523739 2182665.1642897627
S15  394428.0053125627 2182665.1642897627
S15 394426.69227275596 2182665.1642897627
S15 394426.69227275596  2182663.194730052
S15 394425.37923294696  2182663.194730052
S15  394424.0661931402  2182663.194730052
S15   394422.753153329  2182663.194730052
S15  394422.7531533312  2182662.209950195
S15  394422.7531533312  2182661.225170336
S15  394420.7835936177  2182661.225170336
S15  394418.8140339065  2182661.225170338
S15  394418.8140339087 2182660.2403904814
S15  394418.8140339087 2182659.2556106225
S15   394417.500994102 2182659.2556106225
S15 394416.18795429077 2182659.2556106225
S15   394414.874914484 2182659.2556106225
S15 394414.87491448177  2182658.270830768
S15   394414.874914484 2182657.2860509134
S15 394412.90535477054 2182657.2860509134
S15 394412.90535477054 2182655.3164912025
S15 394411.59231496154 2182655.3164912025
S15  394410.2792751548    2182655.3164912
S15   394408.966235348 2182655.3164912025
S15   394408.966235348 2182654.3317113454
S15   394408.966235348 2182653.3469314864
S15  394406.9966756368 2182653.3469314864
S15  394405.0271159233 2182653.3469314864
S15  394405.0271159233  2182651.377371782
S15 394403.71407611435  2182651.377371782
S15 394402.40103630756  2182651.377371782
S15 394401.08799650084  2182651.377371782
S15 394401.08799650084  2182650.392591923
S15 394401.08799649857  2182649.407812064
S15  394399.7749566896  2182649.407812064
S15 394398.46191688505  2182649.407812064
S15  394397.1488770761  2182649.407812064
S15  394397.1488770739 2182648.4230322097
S15  394397.1488770739  2182647.438252351
S15  394395.1793173626  2182647.438252351
S15  394393.2097576536  2182647.438252351
S15  394393.2097576514 2182646.4534725007
S15  394393.2097576514 2182645.4686926394
S15  394391.8967178446  2182645.468692637
S15 394390.58367803565  2182645.468692637
S15 394389.27063822665  2182645.468692637
S15 394389.27063822665  2182643.499132928
S15 394387.30107851763 2182643.4991329303
S15 394385.33151880634  2182643.499132928
S15 394385.33151880413 2182642.5143530737
S15 394385.33151880413 2182641.5295732147
S15  394384.0184789974 2182641.5295732147
S15  394382.7054391884 2182641.5295732147
S15  394381.3923993817 2182641.5295732147
S15  394381.3923993817   2182640.54479336
S15  394381.3923993794  2182639.560013501
S15  394380.0793595727  2182639.560013501
S15  394378.7663197637  2182639.560013501
S15 394377.45327995694  2182639.560013501
S15 394377.45327995694  2182637.590453792
S15 394375.48372024565  2182637.590453792
S15  394373.5141605344  2182637.590453792
S15  394373.5141605322 2182636.6056739376
S15  394373.5141605322  2182636.358688643
S15   394219.278891444 2182685.6083112354
S15 394221.91119107563 2182689.4337250516
S15 394221.36318181007  2182703.258531109
S15  394770.8010972552  2182834.941380542
S15  394769.2374000001 2182831.6502000047
S15  394748.5297999979  2182813.659200001
S16   394913.024697328 2183331.6972473036
S16 394970.21951705555 2183243.4356353055
S16  394871.1469142632 2182984.6208217135
S16 394355.03948123276  2183151.630336701
S16  394464.2111774826 2183227.1549629397
S16  394484.7720290427 2183238.0291037573
S16  394791.3266086542  2183362.281276971
S16   394913.024697328 2183331.6972473036
S18  395139.2533938169 2182973.7279742314
S18  395142.4225749994 2182944.8145919847
S18  395149.7698338417  2182894.253684935
S18 395043.74539999967 2182873.3524000007
S18 395019.25992163835 2182868.4488665476
S18 394992.70464803954  2182888.124626582
S18 394876.12164280587 2182980.6717321645
S18 394952.17610000045  2183077.160000005
S18  394980.8269000006 2183105.2904000003
S18  394996.8238000001 2183121.0064000012
S18  395052.4576897248  2183156.981385479
S18  395139.2533938169 2182973.7279742314
S19  394970.2194969396   2183243.43562185
S19  395026.0710969396   2183212.69192185
S19 395043.49199693964 2183218.5479218503
S19 395105.62829693966 2183227.8056218503
S19  395109.9888969396 2183196.0919218506
S19  395067.4923969396   2183166.70342185
S19 395052.45769693964   2183156.98142185
S19  394996.8237969396 2183121.0064218505
S19 394980.82689693966 2183105.2904218505
S19 394952.17609693966 2183077.1600218504
S19  394876.1215969396 2182980.6717218505
S19  394871.1468969396 2182984.6208218504
S19  394970.2194969396   2183243.43562185
S20  395224.3839750762 2182400.6313360343
S20  394983.6495080608  2182321.529754389
S20   394961.565279465 2182405.1824077824
S20  394962.4125144026 2182405.1824077824
S20  394962.4125144026 2182406.1671876414
S20  394962.4125144026  2182407.151967494
S20 394963.88968418876  2182407.151967494
S20 394965.36685397057  2182407.151967494
S20 394966.84402375453  2182407.151967494
S20 394968.32119353855  2182407.151967494
S20 394968.32119353634  2182408.136747353
S20 394968.32119353855 2182409.1215272117
S20  394969.7983633225 2182409.1215272117
S20  394971.2755331065 2182409.1215272117
S20 394972.75270289276 2182409.1215272117
S20  394974.2298726745 2182409.1215272117
S20  394974.2298726745  2182411.091086916
S20  394975.7070424585  2182411.091086916
S20  394977.1842122447  2182411.091086916
S20  394978.6613820309  2182411.091086916
S20 394980.13855181047  2182411.091086916
S20 394980.13855181047  2182412.075866775
S20 394980.13855181274 2182413.0606466318
S20 394982.10811152396 2182413.0606466318
S20  394984.0776712352 2182413.0606466318
S20  394984.0992528976 2182413.0606466318
S20  394986.0472309465 2182413.0606466318
S20  394986.0472309442 2182414.0454264907
S20  394986.0472309442  2182415.030206343
S20 394987.52440073044  2182415.030206343
S20 394989.00157051446  2182415.030206343
S20  394990.4787402984  2182415.030206343
S20 394991.95591008465  2182415.030206343
S20 394991.95591008465 2182416.9997660522
S20  394993.4330798664  2182416.999766054
S20 394994.91024965484  2182416.999766054
S20  394996.3874194344 2182416.9997660522
S20  394997.8645892184  2182416.999766054
S20  394997.8645892206  2182417.984545913
S20  394997.8645892206 2182418.9693257655
S20  394999.8341489296 2182418.9693257655
S20  395001.8037086409 2182418.9693257655
S20 395003.77326835657 2182418.9693257655
S20 395003.77326835215 2182419.9541056245
S20 395003.77326835436 2182420.9388854792
S20  395005.2504381384 2182420.9388854792
S20  395006.7276079201 2182420.9388854792
S20 395008.20477770414  2182420.938885481
S20  395009.6819474881 2182420.9388854792
S20  395009.6819474903 2182422.9084451883
S20 395011.25759525935 2182422.9084451883
S20  395012.8332430283 2182422.9084451883
S20 395014.40889079956 2182422.9084451883
S20  395015.9845385708 2182422.9084451883
S20 395017.56018633756 2182422.9084451883
S20 395017.56018633756  2182423.893225049
S20 395017.56018633756  2182424.878004904
S20 395019.52974605106  2182424.878004904
S20  395021.4993057623  2182424.878004904
S20  395023.4688654713  2182424.878004904
S20  395023.4688654713 2182425.8627847605
S20  395023.4688654713  2182426.847564615
S20  395024.9460352553  2182426.847564615
S20  395026.4232050393  2182426.847564615
S20  395027.9003748255  2182426.847564615
S20 395029.37754460727  2182426.847564615
S20  395029.3775446095  2182427.832344474
S20  395029.3775446095 2182428.8171243286
S20 395031.34710432077  2182428.817124331
S20   395033.316664032  2182428.817124331
S20  395035.2862237433 2182428.8171243286
S20  395035.2862237433 2182430.7866840377
S20 395036.76339352725 2182430.7866840377
S20  395038.2405633135 2182430.7866840377
S20  395039.7177330952 2182430.7866840377
S20 395041.19490287924 2182430.7866840377
S20 395041.19490287924 2182431.7714638966
S20 395041.19490287924 2182432.7562437532
S20  395042.6720726632 2182432.7562437532
S20 395044.14924244944 2182432.7562437532
S20   395045.626412229 2182432.7562437532
S20  395047.1035820196 2182432.7562437532
S20  395047.1035820152   2182434.72580346
S20 395048.58075179695   2182434.72580346
S20  395050.0579215876   2182434.72580346
S20  395051.5350913694   2182434.72580346
S20  395053.0122611534 2182434.7258034623
S20 395053.01226114895 2182435.7105833236
S20 395053.01226115116 2182436.6953631733
S20  395054.4894309352 2182436.6953631733
S20 395055.96660072135 2182436.6953631733
S20  395057.4437705054 2182436.6953631733
S20  395058.9209402894 2182436.6953631733
S20  395058.9209402894  2182437.680143032
S20  395058.9209402894  2182438.664922887
S20 395060.39811007114  2182438.664922887
S20 395061.87527985516  2182438.664922887
S20 395063.35244964133  2182438.664922887
S20 395064.82961942314  2182438.664922887
S20 395064.82961942314  2182440.634482596
S20  395066.3067892071  2182440.634482596
S20  395067.7839589933  2182440.634482596
S20  395069.2611287751  2182440.634482596
S20  395070.7382985591  2182440.634482596
S20  395070.7382985591  2182441.619262455
S20  395070.7382985613 2182442.6040423117
S20  395072.2154683453 2182442.6040423093
S20  395073.6926381293 2182442.6040423093
S20  395075.1698079111 2182442.6040423093
S20 395076.64697769727 2182442.6040423093
S20 395076.64697769505 2182443.5888221683
S20 395076.64697769727  2182444.573602025
S20  395078.1241474791  2182444.573602025
S20 395079.60131726525  2182444.573602025
S20 395081.07848704705  2182444.573602025
S20  395082.5556568332  2182444.573602025
S20   395082.555656831 2182446.5431617363
S20  395084.5252165467 2182446.5431617363
S20 395086.49477625574 2182446.5431617363
S20 395088.46433596703 2182446.5431617363
S20 395088.46433596703  2182447.527941593
S20 395088.46433596703 2182448.5127214454
S20   395089.941505751 2182448.5127214454
S20   395091.418675535 2182448.5127214454
S20  395092.8958453212 2182448.5127214454
S20   395094.373015103 2182448.5127214454
S20   395094.373015103  2182450.482281157
S20 395095.85018488695  2182450.482281157
S20  395097.3273546754  2182450.482281157
S20  395098.8045244549 2182450.4822811545
S20 395100.28169423895  2182450.482281157
S20 395100.28169423895  2182451.467061016
S20 395100.28169423895 2182452.4518408678
S20 395101.75886402297 2182452.4518408678
S20 395103.23603380914 2182452.4518408678
S20 395104.71320359095 2182452.4518408678
S20  395106.1903733749 2182452.4518408678
S20  395106.1903733749 2182453.4366207267
S20  395106.1903733749 2182454.4214005857
S20  395108.1599330862 2182454.4214005857
S20  395110.1294927974 2182454.4214005857
S20 395112.09905250865 2182454.4214005857
S20 395112.09905250865 2182455.4061804404
S20 395112.09905251086 2182456.3909602948
S20  395113.5762222927 2182456.3909602948
S20  395115.0533920789 2182456.3909602948
S20 395116.53056186065 2182456.3909602948
S20  395118.0077316469 2182456.3909602948
S20  395118.0077316469  2182458.360520004
S20 395119.48490143084  2182458.360520006
S20 395120.96207121486  2182458.360520006
S20  395122.4392409988  2182458.360520004
S20 395123.91641078284  2182458.360520004
S20 395123.91641078505  2182459.345299865
S20 395123.91641078284 2182460.3300797176
S20  395125.3935805668 2182460.3300797176
S20  395126.8707503508 2182460.3300797176
S20 395128.34792013484 2182460.3300797176
S20  395129.8250899232 2182460.3300797176
S20  395129.8250899188 2182462.2996394266
S20    395131.79464963 2182462.2996394266
S20  395133.7642093413 2182462.2996394266
S20 395135.73376905255 2182462.2996394266
S20 395135.73376905697  2182463.284419285
S20 395135.73376905255   2182464.26919914
S20 395137.21093883656   2182464.26919914
S20   395138.688108625   2182464.26919914
S20 395140.16527840454   2182464.26919914
S20  395141.6424481885   2182464.26919914
S20  395141.6424481885  2182465.253978999
S20  395141.6424481885 2182466.2387588555
S20  395143.1196179703  2182466.238758853
S20 395144.59678775875 2182466.2387588555
S20  395146.0739575405 2182466.2387588555
S20  395147.5511273245 2182466.2387588555
S20 395147.55112732673  2182467.223538712
S20  395147.5511273245  2182468.208318567
S20 395149.52068703796  2182468.208318567
S20 395151.49024675146  2182468.208318567
S20  395153.4598064605  2182468.208318567
S20  395155.4293661739  2182468.208318567
S20  395155.4293661739  2182470.177878278
S20  395156.9065359557  2182470.177878276
S20  395158.3837057397  2182470.177878278
S20  395159.8608755237  2182470.177878278
S20 395161.33804530767  2182470.177878278
S20 395161.33804530994  2182471.162658137
S20 395161.33804530994 2182472.1474379892
S20 395163.30760501896 2182472.1474379892
S20  395165.2771647324 2182472.1474379892
S20  395167.2467244437 2182472.1474379892
S20  395167.2467244437  2182473.132217848
S20  395167.2467244437  2182474.116997703
S20 395168.72389422765  2182474.116997705
S20 395170.20106400945  2182474.116997705
S20  395171.6782337956  2182474.116997705
S20 395173.15540357964  2182474.116997703
S20 395173.15540357964  2182476.086557412
S20  395174.6325733659  2182476.086557412
S20  395176.1097431476  2182476.086557412
S20 395177.58691293164  2182476.086557412
S20  395179.0640827156  2182476.086557412
S20  395179.0640827156 2182477.0713372706
S20  395179.0640827156 2182478.0561171276
S20  395180.5412524996 2182478.0561171276
S20  395182.0184222858 2182478.0561171276
S20  395183.4955920698 2182478.0561171276
S20 395184.97276185156 2182478.0561171276
S20  395184.9727618538 2182480.0256768344
S20  395186.4499316378 2182480.0256768344
S20 395187.92710141954 2182480.0256768344
S20 395189.40427120577 2182480.0256768344
S20  395190.8814409876 2182480.0256768344
S20  395190.8814409876 2182481.0104566975
S20  395190.8814409876 2182481.9952365477
S20 395192.35861077154 2182481.9952365477
S20 395193.83578055556 2182481.9952365477
S20 395195.31295034173 2182481.9952365477
S20 395196.79012012354 2182481.9952365477
S20 395196.79012012575 2182482.9800164066
S20 395196.79012012575 2182483.9647962614
S20   395198.759679837 2182483.9647962614
S20 395200.72923954827 2182483.9647962614
S20  395202.6987992617 2182483.9647962614
S20  395204.6683589707 2182483.9647962614
S20   395206.637918682 2182483.9647962614
S20 395208.60747839545 2182483.9647962614
S20 395210.57703810895 2182483.9647962614
S20  395211.1904360687 2182483.9647962614
S20 395214.48210000276  2182462.999700002
S20  395224.3839750762 2182400.6313360343
S21 395927.26900515635  2182213.233559322
S21 395922.21520515636  2182179.464959322
S21 395914.00150515634 2182124.5820593224
S21 395902.48230515636  2182085.698959322
S21 395896.64620515634  2182076.892759322
S21 395819.48320515634 2182204.0993593223
S21 395827.99710515636 2182202.7989593223
S21  395926.8700051563 2182269.9093593224
S21 395936.66250515636  2182268.725659322
S21 395927.26900515635  2182213.233559322
S22 396063.91848277656  2182022.386348429
S22 396070.58368277655 2181862.0226484295
S22 395998.22558277653  2181909.434848429
S22 395829.23698277655 2182007.6945484295
S22 395861.46388277656 2182034.9424484293
S22  395885.4520827765  2182060.001448429
S22 395896.64628277655 2182076.8927484294
S22 395902.48228277656 2182085.6989484294
S22 395914.00148277654  2182124.582048429
S22 395922.21518277656 2182179.4649484293
S22 395966.73838277656  2182168.438448429
S22 396063.91848277656  2182022.386348429
S23 395506.8239591301 2181711.2344664377
S23 395393.9906591301 2181607.1508664377
S23 395258.8042591301 2181768.1067664376
S23 395267.4093591301  2181916.605866438
S23 395271.1826591301  2181981.830566438
S23 395333.9428591301  2182031.864566438
S23 395453.0307591301  2181904.153566438
S23 395574.6153591301 2181773.7651664377
S23 395506.8239591301 2181711.2344664377
S24 395921.31186561676  2181401.964738328
S24  395900.0088845752 2181011.1512764418
S24 395863.13757290697 2181048.5738812033
S24 395393.99062418466 2181607.1508532623
S24 395506.82400480635  2181711.234490562
S24  395574.6153563789  2181773.765179128
S24 395921.31186561676  2181401.964738328
S25  395748.3354273717 2182052.2572218226
S25 395756.19762737176 2182043.4584218226
S25 395762.15912737173 2182046.6974218227
S25 395829.23692737176 2182007.6945218225
S25 395998.22552737175 2181909.4348218227
S25 396070.58362737176 2181862.0226218225
S25  396096.8550273717 2181799.2200218225
S25 395939.28482737177  2181462.517521823
S25 395718.70882737177 2181906.8510218225
S25 395655.60772737174 2182033.9632218224
S25 395673.07972737175 2182031.2403218225
S25  395748.3354273717 2182052.2572218226
S26  395676.2284032032 2181867.4929937096
S26  395574.6153563789  2181773.765179128
S26 395453.03077252966 2181904.1535754516
S26  395555.0939000016 2181891.4320999994
S26 395610.04460000043  2181886.260200001
S26 395630.64499999955 2181882.3971000025
S26 395651.60769999877  2181877.723700007
S26  395676.2284032032 2181867.4929937096
S27 395401.38723619655  2182078.841652425
S27 395410.88613619655  2182068.210552425
S27 395431.72683619655  2182082.768652425
S27  395466.1058361965  2182073.560952425
S27 395517.70343619655  2182068.841652425
S27 395540.19453619653  2182081.063352425
S27  395562.6735361965  2182072.998152425
S27 395582.77663619653  2182050.498152425
S27 395611.38723619655  2182043.841652425
S27  395626.1058361965  2182038.560952425
S27 395655.60773619654  2182033.963252425
S27  395718.7088361965  2181906.850952425
S27  395676.2284361965  2181867.492952425
S27 395651.60773619654  2181877.723652425
S27  395630.6450361965  2181882.397052425
S27  395610.0446361965  2181886.260152425
S27  395555.0939361965  2181891.432052425
S27 395453.03073619655  2181904.153552425
S27  395333.9428361965  2182031.864552425
S27 395271.18263619655 2181981.8305524252
S27  395272.0431361965 2181996.7049524253
S27 395267.28433619655  2182120.445252425
S27  395282.1705361965  2182117.264552425
S27  395316.1058361965  2182093.560952425
S27  395336.0176361965 2182084.4215524253
S27 395365.16673619655  2182081.933352425
S27 395401.38723619655  2182078.841652425
S28   395939.284869903 2181462.5175120924
S28 395921.31186561676  2181401.964738328
S28  395574.6153563789  2181773.765179128
S28  395676.2284032032 2181867.4929937096
S28  395718.7088452504 2181906.8509772085
S28   395939.284869903 2181462.5175120924
S29 395624.37236984744 2182977.5943425028
S29  395612.2441698474  2182974.214842503
S29  395607.9552698474 2182993.7673425027
S29 395588.42786984745  2183082.791342503
S29 395695.29896984744  2183120.838142503
S29 395728.07696984743  2183006.491742503
S29 395624.37236984744 2182977.5943425028
S30  395452.8328752801 2182451.4670331893
S30  395452.8328752801  2182450.482233189
S30  395454.5835752801  2182450.482233189
S30 395456.33437528013  2182450.482233189
S30  395458.0850752801  2182450.482233189
S30 395459.83577528014  2182450.482233189
S30  395461.5864752801  2182450.482233189
S30  395463.3371752801  2182450.482233189
S30  395465.0879752801  2182450.482233189
S30  395466.8386752801  2182450.482233189
S30 395468.58937528013  2182450.482233189
S30 395468.58937528013  2182448.512733189
S30  395470.3400752801  2182448.512733189
S30  395471.6571752801  2182448.512733189
S30 395477.72437528014  2182408.470933189
S30  395950.4758752801  2182334.368933189
S30  395947.3840752801  2182319.676233189
S30  395942.2309752801  2182313.908833189
S30 395923.74647528015 2182312.8077331893
S30  395887.4784752801  2182314.968433189
S30  395871.1058752801 2182293.8417331893
S30 395869.12007528014  2182276.889933189
S30 395599.11767528014  2182309.526633189
S30  395481.1038752801  2182323.791733189
S30  395424.0781752801  2182330.684733189
S30 395428.50357528013 2182382.1257331893
S30 395437.21797528013  2182452.451833189
S30  395439.0459752801  2182452.451833189
S30  395441.0155752801  2182452.451833189
S30  395442.9850752801  2182452.451833189
S30 395444.95467528014  2182452.451833189
S30 395446.92417528015  2182452.451833189
S30  395448.8937752801  2182452.451833189
S30  395450.8633752801  2182452.451833189
S30  395452.8328752801  2182452.451833189
S30  395452.8328752801 2182451.4670331893
S31  395947.3840710377 2182319.6761713107
S31  395938.5848710377  2182277.860871311
S31  395936.6624710377  2182268.725671311
S31 395926.86997103767  2182269.909371311
S31  395827.9970710377  2182202.798871311
S31  395819.4832710377  2182204.099271311
S31  395817.0006710377  2182204.689671311
S31  395823.9182710377 2182217.4195713107
S31  395841.6682710377 2182233.2789713107
S31 395855.20307103766  2182248.427871311
S31 395866.38717103767  2182253.560971311
S31  395869.1200710377 2182276.8899713107
S31  395871.1058710377  2182293.841671311
S31  395887.4784710377 2182314.9683713107
S31  395923.7464710377  2182312.807771311
S31  395942.2309710377 2182313.9088713108
S31  395947.3840710377 2182319.6761713107
S32 396000.6965812507  2183223.763557996
S32 396008.7464812507  2183223.598757996
S32 396018.7464812507  2183223.803857996
S32 396065.1243812507 2183222.8565579965
S32 396077.6075812507  2183231.318357996
S32 396110.7907812507  2183116.668757996
S32 396013.4512812507  2183087.867457996
S32 395978.5796812507  2183077.549457996
S32 395970.3750812507  2183074.696657996
S32 395969.0028812507  2183079.262157996
S32 395898.0344812507 2183055.3256579963
S32 395866.0773812507  2183168.979257996
S32 395927.8377812507 2183216.2204579962
S32 395976.3849812507 2183253.3546579964
S32 395992.2054812507 2183265.4558579964
S32 395996.5195812507 2183228.1110579963
S32 396000.6965812507  2183223.763557996
S33  396000.2489653555 2183571.5551659917
S33  396073.1275653555 2183361.4776659915
S33  396057.3111653555 2183354.2176659917
S33  396047.9580653555  2183333.758765992
S33  396077.6075653555 2183231.3183659916
S33  396065.1243653555  2183222.856565992
S33  396018.7464653555 2183223.8038659915
S33  396008.7464653555 2183223.5987659916
S33  396000.6965653555 2183223.7635659915
S33  395996.5195653555 2183228.1110659917
S33  395992.2054653555  2183265.455865992
S33  395976.3849653555  2183253.354665992
S33  395971.2965653555  2183261.374665992
S33 395986.35726535553 2183268.6805659914
S33  395956.1964653555  2183303.651265992
S33  395946.2965653555  2183338.751365992
S33  395931.1964653555  2183358.651265992
S33  395921.1720653555 2183384.0675659915
S33  395911.1964653555  2183393.651265992
S33  395910.4778653555 2183396.5989659918
S33  395990.1439653555 2183387.7144659916
S33  395937.2808653555 2183483.8915659916
S33  395945.3935653555 2183485.8692659917
S33  395960.4808653555 2183532.3621659917
S33  395966.8965653555  2183544.815765992
S33  395996.6152653555 2183573.3695659917
S33  396000.2489653555 2183571.5551659917
S34 395866.74804198707 2183419.4690966504
S34  395872.3437419871   2183400.85169665
S34 395910.47784198704 2183396.5989966504
S34 395911.19644198706   2183393.65129665
S34 395921.17204198707 2183384.0674966504
S34 395931.19644198706   2183358.65129665
S34 395946.29654198705 2183338.7513966504
S34 395956.19644198706   2183303.65129665
S34  395986.3572419871   2183268.68059665
S34 395971.29654198705 2183261.3745966502
S34 395976.38494198705   2183253.35469665
S34  395927.8377419871 2183216.2203966505
S34 395866.07734198705 2183168.9792966503
S34  395718.7740419871 2183164.3802966503
S34  395665.3376419871 2183286.9756966503
S34  395722.9699419871   2183356.90669665
S34 395768.71114198706 2183412.4089966505
S34 395830.47844198707 2183405.5205966504
S34 395839.18034198706   2183409.45549665
S34 395866.74804198707 2183419.4690966504
S35 395137.39235983393 2183232.5382072213
S35 395105.62835983397  2183227.805607221
S35   395097.669059834 2183285.6920072213
S35 395079.18795983394  2183420.101107221
S35 395077.07055983396  2183434.407807221
S35 395192.11915983394 2183506.4408072215
S35 395214.74955983396  2183464.068707221
S35   395218.025659834 2183435.3033072213
S35 395217.44055983395 2183434.1305072214
S35 395137.39235983393 2183232.5382072213
S36  395204.3160724002  2183238.584975753
S36  395154.9687724002 2183216.5758757526
S36  395137.3923724002  2183232.538175753
S36  395217.4405724002  2183434.130475753
S36  395218.0256724002  2183435.303275753
S36  395229.5434724002 2183408.9680757527
S36 395280.28747240023  2183321.067275753
S36  395298.2953724002  2183280.704275753
S36  395225.5538724002 2183248.0571757527
S36  395204.3160724002  2183238.584975753
S37 395307.77300964604  2182932.167384042
S37   395281.793509646 2182871.9679840417
S37   395280.824609646 2182871.9679840417
S37   395278.964509646 2182871.9679840417
S37   395277.104309646 2182871.9679840417
S37   395275.244209646 2182871.9679840417
S37   395273.384109646 2182871.9679840417
S37   395271.523909646 2182871.9679840417
S37 395269.66380964604 2182871.9679840417
S37 395269.66380964604  2182872.952784042
S37 395269.66380964604 2182873.9375840416
S37   395267.732809646 2182873.9375840416
S37   395265.801909646 2182873.9375840416
S37 395263.87100964604 2182873.9375840416
S37   395261.940009646 2182873.9375840416
S37   395260.009109646 2182873.9375840416
S37 395258.07810964604 2182873.9375840416
S37   395256.147209646 2182873.9375840416
S37   395254.216309646 2182873.9375840416
S37   395252.285309646 2182873.9375840416
S37   395250.354409646 2182873.9375840416
S37   395248.423409646 2182873.9375840416
S37   395246.492509646 2182873.9375840416
S37   395244.561509646 2182873.9375840416
S37 395242.63060964603 2182873.9375840416
S37   395240.699709646 2182873.9375840416
S37   395238.768709646 2182873.9375840416
S37 395236.83780964604 2182873.9375840416
S37   395234.906809646 2182873.9375840416
S37   395232.975909646 2182873.9375840416
S37 395231.04500964604 2182873.9375840416
S37   395229.114009646 2182873.9375840416
S37   395227.183109646 2182873.9375840416
S37 395225.25210964604 2182873.9375840416
S37   395223.321209646 2182873.9375840416
S37   395221.390309646 2182873.9375840416
S37 395219.45930964604 2182873.9375840416
S37   395217.528409646 2182873.9375840416
S37   395215.597409646 2182873.9375840416
S37   395213.666509646 2182873.9375840416
S37   395211.735609646 2182873.9375840416
S37 395209.80460964603 2182873.9375840416
S37   395207.873709646 2182873.9375840416
S37   395205.942709646 2182873.9375840416
S37 395204.01180964604 2182873.9375840416
S37   395202.080809646 2182873.9375840416
S37   395200.149909646 2182873.9375840416
S37 395198.21900964604 2182873.9375840416
S37   395196.288009646 2182873.9375840416
S37   395194.357109646 2182873.9375840416
S37 395192.42610964604 2182873.9375840416
S37   395190.495209646 2182873.9375840416
S37   395188.564309646 2182873.9375840416
S37 395186.63330964604 2182873.9375840416
S37 395186.51780964603 2182873.9375840416
S37   395184.702409646 2182873.9375840416
S37 395182.77150964603 2182873.9375840416
S37   395180.840509646 2182873.9375840416
S37   395178.909609646 2182873.9375840416
S37 395176.97870964603 2182873.9375840416
S37   395175.047709646 2182873.9375840416
S37   395173.116809646 2182873.9375840416
S37 395171.18580964603 2182873.9375840416
S37 395171.18580964603 2182872.9528840417
S37 395171.18580964603  2182871.968084042
S37 395169.34760964604  2182871.968084042
S37 395167.50930964603  2182871.968084042
S37 395165.67110964603  2182871.968084042
S37 395163.83280964603  2182871.968084042
S37 395161.99460964603  2182871.968084042
S37 395160.15630964603  2182871.968084042
S37   395158.318009646  2182871.968084042
S37   395156.479809646  2182871.968084042
S37   395154.641509646  2182871.968084042
S37 395153.00820964604  2182871.968084042
S37   395149.769809646  2182894.253684042
S37 395142.42250964604  2182944.814584042
S37 395139.25330964604  2182973.727984042
S37   395052.457609646 2183156.9813840417
S37 395067.49240964605  2183166.703384042
S37   395109.988809646 2183196.0918840417
S37 395105.62830964604  2183227.805584042
S37   395137.392309646 2183232.5381840416
S37   395154.968709646  2183216.575784042
S37   395195.594509646  2183179.680584042
S37 395325.71780964604  2182973.748884042
S37 395307.77300964604  2182932.167384042
S38  395496.5619210727 2183260.872553752
S38 395492.06482107274 2183252.366353752
S38  395511.2715210727 2183261.179253752
S38  395529.2459210727 2183217.450853752
S38  395505.1208210727 2183206.421153752
S38  395455.9062210727 2183183.973353752
S38  395371.0200210727 2183023.413353752
S38 395349.22692107275 2183007.502053752
S38 395309.66172107274 2183255.227653752
S38 395440.61742107273 2183316.249853752
S38  395496.5619210727 2183260.872553752
S39  395728.0769230455 2183006.4917116985
S39  395779.6242230455 2182826.6682116985
S39 395778.30262304546 2182826.6682116985
S39  395777.5750230455 2182826.6682116985
S39  395776.5792230455 2182826.6682116985
S39  395774.8559230455 2182826.6682116985
S39 395773.13252304547 2182826.6682116985
S39  395771.4091230455 2182826.6682116985
S39  395769.6858230455 2182826.6682116985
S39  395767.9624230455 2182826.6682116985
S39  395767.9624230455 2182827.6530116987
S39  395767.9624230455 2182828.6377116987
S39  395765.9929230455 2182828.6377116987
S39 395764.02332304546 2182828.6377116987
S39  395762.0537230455 2182828.6377116987
S39  395760.0842230455 2182828.6377116987
S39  395758.1146230455 2182828.6377116987
S39  395756.1451230455 2182828.6377116987
S39  395754.1755230455 2182828.6377116987
S39 395752.20592304546 2182828.6377116987
S39 395752.20592304546 2182830.6073116986
S39  395750.2364230455 2182830.6073116986
S39  395748.2668230455 2182830.6073116986
S39  395746.2973230455 2182830.6073116986
S39  395744.3277230455 2182830.6073116986
S39  395742.3581230455 2182830.6073116986
S39 395740.38862304547 2182830.6073116986
S39  395738.4190230455 2182830.6073116986
S39  395738.4190230455  2182831.592111699
S39  395738.4190230455 2182832.5769116986
S39  395736.6683230455 2182832.5769116986
S39  395734.9176230455 2182832.5769116986
S39  395733.1669230455 2182832.5769116986
S39  395731.4161230455 2182832.5769116986
S39 395729.66542304546 2182832.5769116986
S39  395727.9147230455 2182832.5769116986
S39  395726.1640230455 2182832.5769116986
S39  395724.4133230455 2182832.5769116986
S39  395722.6625230455 2182832.5769116986
S39  395722.6625230455 2182834.5464116987
S39  395720.6930230455 2182834.5464116987
S39  395718.7234230455 2182834.5464116987
S39  395716.7539230455 2182834.5464116987
S39 395714.78432304546 2182834.5464116987
S39  395712.8147230455 2182834.5464116987
S39  395710.8452230455 2182834.5464116987
S39  395708.8756230455 2182834.5464116987
S39  395706.9061230455 2182834.5464116987
S39  395706.9061230455 2182835.5312116984
S39  395706.9061230455 2182836.5160116986
S39  395704.9365230455 2182836.5160116986
S39 395702.96692304546 2182836.5160116986
S39  395700.9974230455 2182836.5160116986
S39  395699.0278230455 2182836.5160116986
S39  395697.0583230455 2182836.5160116986
S39  395695.0887230455 2182836.5160116986
S39  395693.1191230455 2182836.5160116986
S39  395693.1191230455 2182837.5008116984
S39  395693.1191230455 2182838.4855116988
S39  395691.3684230455 2182838.4855116988
S39 395689.61772304546 2182838.4855116988
S39  395687.8670230455 2182838.4855116988
S39  395686.1163230455 2182838.4855116988
S39  395684.3655230455 2182838.4855116988
S39  395682.6148230455 2182838.4855116988
S39 395680.86412304547 2182838.4855116988
S39  395679.1134230455 2182838.4855116988
S39 395677.36272304546 2182838.4855116988
S39 395677.36272304546 2182840.4551116987
S39  395675.3931230455 2182840.4551116987
S39  395673.4235230455 2182840.4551116987
S39  395671.4540230455 2182840.4551116987
S39  395669.4844230455 2182840.4551116987
S39 395667.51492304547 2182840.4551116987
S39 395665.54532304546 2182840.4551116987
S39  395663.5757230455 2182840.4551116987
S39  395663.5757230455 2182841.4399116985
S39  395663.5757230455 2182842.4247116987
S39  395661.8250230455 2182842.4247116987
S39  395660.0743230455 2182842.4247116987
S39 395658.32362304546 2182842.4247116987
S39  395656.5729230455 2182842.4247116987
S39 395654.82222304546 2182842.4247116987
S39  395653.0714230455 2182842.4247116987
S39  395651.3207230455 2182842.4247116987
S39 395649.57002304547 2182842.4247116987
S39  395647.8193230455 2182842.4247116987
S39  395647.8193230455 2182843.4094116986
S39  395647.8193230455  2182844.394211699
S39  395645.8497230455  2182844.394211699
S39  395643.8802230455  2182844.394211699
S39 395641.91062304546  2182844.394211699
S39  395639.9410230455  2182844.394211699
S39  395637.9715230455  2182844.394211699
S39  395636.0019230455  2182844.394211699
S39  395634.0324230455  2182844.394211699
S39  395634.0324230455 2182846.3638116987
S39  395632.0628230455 2182846.3638116987
S39 395630.09322304546 2182846.3638116987
S39 395628.12372304546 2182846.3638116987
S39  395626.1541230455 2182846.3638116987
S39  395624.1846230455 2182846.3638116987
S39  395622.2150230455 2182846.3638116987
S39  395620.2454230455 2182846.3638116987
S39 395618.27592304547 2182846.3638116987
S39 395618.27592304547 2182847.3486116985
S39 395618.27592304547 2182848.3333116984
S39  395616.5252230455 2182848.3333116984
S39 395614.77442304546 2182848.3333116984
S39  395613.0237230455 2182848.3333116984
S39  395611.2730230455 2182848.3333116984
S39  395609.5223230455 2182848.3333116984
S39  395607.7716230455 2182848.3333116984
S39 395606.02082304546 2182848.3333116984
S39  395604.2701230455 2182848.3333116984
S39  395602.5194230455 2182848.3333116984
S39  395602.5194230455  2182850.302911699
S39  395600.5498230455  2182850.302911699
S39  395598.5803230455  2182850.302911699
S39  395596.6107230455  2182850.302911699
S39  395594.6412230455  2182850.302911699
S39 395592.67162304546  2182850.302911699
S39  395590.7020230455  2182850.302911699
S39  395588.7325230455  2182850.302911699
S39  395588.7325230455 2182851.2877116986
S39  395588.7325230455  2182852.272511699
S39 395586.98182304547  2182852.272511699
S39  395585.2310230455  2182852.272511699
S39 395583.48032304546  2182852.272511699
S39  395581.7296230455  2182852.272511699
S39  395579.9789230455  2182852.272511699
S39  395578.2282230455  2182852.272511699
S39  395576.4774230455  2182852.272511699
S39 395574.72672304546  2182852.272511699
S39  395572.9760230455  2182852.272511699
S39  395572.9760230455 2182853.2572116987
S39  395572.9760230455 2182854.2420116984
S39  395571.0064230455 2182854.2420116984
S39 395569.03692304547 2182854.2420116984
S39 395567.06732304546 2182854.2420116984
S39  395565.0978230455 2182854.2420116984
S39  395563.1282230455 2182854.2420116984
S39  395561.1586230455 2182854.2420116984
S39  395559.1891230455 2182854.2420116984
S39  395559.1891230455 2182855.2268116986
S39  395559.1891230455 2182856.2116116984
S39  395557.3710230455 2182856.2116116984
S39  395555.5530230455 2182856.2116116984
S39  395553.7349230455 2182856.2116116984
S39  395551.9169230455 2182856.2116116984
S39  395550.0988230455 2182856.2116116984
S39 395548.28082304547 2182856.2116116984
S39  395546.4627230455 2182856.2116116984
S39 395544.64462304546 2182856.2116116984
S39  395542.8266230455 2182856.2116116984
S39 395541.00852304546 2182856.2116116984
S39  395539.1905230455 2182856.2116116984
S39  395537.3724230455 2182856.2116116984
S39  395535.5544230455 2182856.2116116984
S39  395535.5544230455 2182858.1811116985
S39  395533.5848230455 2182858.1811116985
S39 395531.61522304546 2182858.1811116985
S39  395529.6457230455 2182858.1811116985
S39  395527.6761230455 2182858.1811116985
S39  395525.7066230455 2182858.1811116985
S39  395523.7370230455 2182858.1811116985
S39  395521.7674230455 2182858.1811116985
S39 395519.79792304547 2182858.1811116985
S39  395517.8283230455 2182858.1811116985
S39  395515.8588230455 2182858.1811116985
S39  395513.8892230455 2182858.1811116985
S39  395511.9197230455 2182858.1811116985
S39  395509.9501230455 2182858.1811116985
S39 395507.98052304547 2182858.1811116985
S39 395506.01102304546 2182858.1811116985
S39  395504.0414230455 2182858.1811116985
S39  395502.0719230455 2182858.1811116985
S39  395502.0719230455 2182859.1659116987
S39  395502.0719230455 2182860.1507116985
S39  395500.1023230455 2182860.1507116985
S39  395498.1327230455 2182860.1507116985
S39 395496.16322304547 2182860.1507116985
S39 395494.19362304546 2182860.1507116985
S39  395492.2241230455 2182860.1507116985
S39  395490.2545230455 2182860.1507116985
S39  395488.2849230455 2182860.1507116985
S39  395486.3154230455 2182860.1507116985
S39 395484.34582304547 2182860.1507116985
S39 395482.37632304546 2182860.1507116985
S39  395480.4067230455 2182860.1507116985
S39  395478.4371230455 2182860.1507116985
S39  395476.4676230455 2182860.1507116985
S39  395474.4980230455 2182860.1507116985
S39  395472.5285230455 2182860.1507116985
S39 395470.55892304546 2182860.1507116985
S39  395468.5893230455 2182860.1507116985
S39  395468.5893230455 2182861.1355116987
S39  395468.5893230455 2182862.1202116986
S39  395466.6198230455 2182862.1202116986
S39  395464.6502230455 2182862.1202116986
S39  395462.6807230455 2182862.1202116986
S39  395460.7111230455 2182862.1202116986
S39 395458.74152304546 2182862.1202116986
S39 395456.77202304546 2182862.1202116986
S39  395454.8024230455 2182862.1202116986
S39  395452.8329230455 2182862.1202116986
S39  395450.8633230455 2182862.1202116986
S39  395448.8937230455 2182862.1202116986
S39 395446.92422304547 2182862.1202116986
S39 395444.95462304546 2182862.1202116986
S39  395442.9851230455 2182862.1202116986
S39  395441.0155230455 2182862.1202116986
S39  395439.0459230455 2182862.1202116986
S39  395437.0764230455 2182862.1202116986
S39 395435.10682304547 2182862.1202116986
S39 395435.10682304547 2182864.0898116985
S39  395433.2531230455 2182864.0898116985
S39 395431.39942304546 2182864.0898116985
S39  395429.5457230455 2182864.0898116985
S39  395427.6920230455 2182864.0898116985
S39 395425.83832304546 2182864.0898116985
S39  395423.9846230455 2182864.0898116985
S39  395422.1309230455 2182864.0898116985
S39  395420.2772230455 2182864.0898116985
S39  395418.4235230455 2182864.0898116985
S39 395416.56982304546 2182864.0898116985
S39  395414.7161230455 2182864.0898116985
S39  395412.8624230455 2182864.0898116985
S39 395411.00872304547 2182864.0898116985
S39  395409.1550230455 2182864.0898116985
S39  395407.3013230455 2182864.0898116985
S39  395405.4476230455 2182864.0898116985
S39  395403.5939230455 2182864.0898116985
S39  395403.5939230455 2182865.0746116987
S39  395403.5939230455 2182866.0594116985
S39  395401.7337230455 2182866.0594116985
S39  395399.8736230455 2182866.0594116985
S39 395398.01342304546 2182866.0594116985
S39 395396.15332304547 2182866.0594116985
S39  395394.2932230455 2182866.0594116985
S39  395392.4330230455 2182866.0594116985
S39  395390.5729230455 2182866.0594116985
S39  395388.7127230455 2182866.0594116985
S39  395386.8526230455 2182866.0594116985
S39  395384.9925230455 2182866.0594116985
S39 395383.13232304546 2182866.0594116985
S39 395381.27222304547 2182866.0594116985
S39  395379.4121230455 2182866.0594116985
S39  395377.5519230455 2182866.0594116985
S39  395375.6918230455 2182866.0594116985
S39  395373.8316230455 2182866.0594116985
S39  395371.9715230455 2182866.0594116985
S39  395370.1114230455 2182866.0594116985
S39  395370.1114230455 2182867.0441116984
S39  395370.1114230455 2182868.0289116986
S39  395368.1418230455 2182868.0289116986
S39  395366.1722230455 2182868.0289116986
S39  395364.2027230455 2182868.0289116986
S39  395362.2331230455 2182868.0289116986
S39 395360.26362304547 2182868.0289116986
S39  395358.2940230455 2182868.0289116986
S39  395356.3244230455 2182868.0289116986
S39  395354.3549230455 2182868.0289116986
S39  395352.3853230455 2182868.0289116986
S39  395350.4158230455 2182868.0289116986
S39 395348.44622304547 2182868.0289116986
S39 395346.47662304546 2182868.0289116986
S39  395344.5071230455 2182868.0289116986
S39  395342.5375230455 2182868.0289116986
S39  395340.5680230455 2182868.0289116986
S39  395338.5984230455 2182868.0289116986
S39 395336.62882304547 2182868.0289116986
S39 395336.62882304547 2182869.9985116986
S39 395334.65932304546 2182869.9985116986
S39  395332.6897230455 2182869.9985116986
S39  395330.7202230455 2182869.9985116986
S39  395328.7506230455 2182869.9985116986
S39  395326.7810230455 2182869.9985116986
S39  395324.8115230455 2182869.9985116986
S39 395322.84192304546 2182869.9985116986
S39  395320.8724230455 2182869.9985116986
S39  395318.9028230455 2182869.9985116986
S39  395316.9332230455 2182869.9985116986
S39  395314.9637230455 2182869.9985116986
S39  395312.9941230455 2182869.9985116986
S39 395311.02462304546 2182869.9985116986
S39  395309.0550230455 2182869.9985116986
S39  395307.0854230455 2182869.9985116986
S39  395305.1159230455 2182869.9985116986
S39  395303.1463230455 2182869.9985116986
S39  395303.1463230455  2182870.983311699
S39  395303.1463230455 2182871.9680116987
S39  395301.2862230455 2182871.9680116987
S39  395299.4260230455 2182871.9680116987
S39  395297.5659230455 2182871.9680116987
S39 395295.70582304546 2182871.9680116987
S39 395293.84562304546 2182871.9680116987
S39 395291.98552304547 2182871.9680116987
S39  395290.1253230455 2182871.9680116987
S39  395288.2652230455 2182871.9680116987
S39  395286.4051230455 2182871.9680116987
S39  395284.5449230455 2182871.9680116987
S39  395282.6848230455 2182871.9680116987
S39  395281.7935230455 2182871.9680116987
S39  395307.7730230455 2182932.1674116985
S39  395310.2837230455  2182932.787311699
S39 395418.60072304547 2182944.7277116985
S39 395502.22172304546 2182952.0640116986
S39 395565.06262304547 2182961.0396116986
S39  395612.2442230455 2182974.2148116985
S39  395624.3723230455  2182977.594311699
S39  395728.0769230455 2183006.4917116985
S40  395310.2836940518  2182932.787273813
S40  395307.7729940518  2182932.167373813
S40  395325.7178940518 2182973.7489738134
S40 395349.22699405183  2183007.502073813
S40 395371.01999405184  2183023.413373813
S40  395536.3926940518 2183064.2665738133
S40  395588.4278940518  2183082.791373813
S40  395607.9552940518 2182993.7673738133
S40 395612.24419405183 2182974.2147738133
S40  395565.0625940518 2182961.0395738133
S40  395502.2216940518 2182952.0639738133
S40  395418.6006940518 2182944.7276738132
S40  395310.2836940518  2182932.787273813
S41 395247.2448985997 2183518.6125978995
S41 395256.5485985997 2183505.1830978994
S41 395371.0607985997 2183558.5835978994
S41 395386.8419985997  2183523.478997899
S41 395399.6113985997 2183495.0739978994
S41 395412.9927985997 2183465.4251978993
S41 395414.6273985997 2183461.8034978993
S41 395438.2323985997 2183411.1551978993
S41 395441.1995985997  2183404.957397899
S41 395464.8899985997 2183355.4734978992
S41 395432.7389985997 2183341.0437978995
S41 395388.2167985997 2183321.0618978995
S41 395298.2953985997 2183280.7042978993
S41 395280.2874985997  2183321.067297899
S41 395229.5434985997  2183408.968097899
S41 395218.0256985997  2183435.303297899
S41 395214.7494985997  2183464.068697899
S41 395192.1191985997 2183506.4407978994
S41 395196.6322985997 2183589.3130978993
S41 395201.5495985997  2183605.461997899
S41 395227.4874985997  2183546.020997899
S41 395247.2448985997 2183518.6125978995
S42  395440.6174578534 2183316.2498147786
S42 395309.66175785335 2183255.2276147786
S42 395298.29535785335 2183280.7043147786
S42 395388.21685785335  2183321.061914779
S42 395432.73895785335  2183341.043814779
S42  395438.3819578534 2183321.0594147784
S42  395440.6174578534 2183316.2498147786
S44 395588.42789630155  2183082.791384634
S44  395536.3926964579 2183064.2665552883
S44  395371.0199745785 2183023.4133488615
S44  395455.9062265327 2183183.9733908363
S44 395505.12084999797 2183206.4211839642
S44  395529.2459250006  2183217.450891985
S44  395553.4900250008 2183171.9916919824
S44 395566.98302500154 2183143.4911919856
S44  395582.1637250014 2183111.3492919817
S44 395588.42789630155  2183082.791384634
S45 395695.29902155674  2183120.838100995
S45 395588.42792155675  2183082.791400995
S45  395582.1637215567  2183111.349300995
S45 395566.98302155675  2183143.491200995
S45 395553.49002155673 2183171.9917009952
S45  395529.2459215567  2183217.450900995
S45  395511.2715215568  2183261.179300995
S45  395508.8794215567  2183266.042500995
S45 395605.08392155677  2183306.422000995
S45 395608.72542155674  2183305.246700995
S45 395665.33762155677  2183286.975700995
S45  395718.7740215567  2183164.380300995
S45 395695.29902155674  2183120.838100995
S46  395484.3458412854 2182447.5279888203
S46  395484.3458412854   2182446.54318882
S46 395486.31534128543   2182446.54318882
S46 395488.28494128544   2182446.54318882
S46 395490.25444128545   2182446.54318882
S46 395492.22404128546   2182446.54318882
S46 395494.19364128547   2182446.54318882
S46  395496.1631412854   2182446.54318882
S46 395498.13274128543   2182446.54318882
S46 395500.10224128544   2182446.54318882
S46 395500.10224128544   2182444.57368882
S46  395501.8530412854   2182444.57368882
S46 395503.60374128545   2182444.57368882
S46  395505.3544412854   2182444.57368882
S46 395507.10514128546   2182444.57368882
S46 395508.85584128543   2182444.57368882
S46 395510.60664128547   2182444.57368882
S46 395512.35734128545   2182444.57368882
S46  395514.1080412854   2182444.57368882
S46 395515.85874128545   2182444.57368882
S46 395515.85874128545 2182443.5888888203
S46 395515.85874128545   2182442.60408882
S46 395517.82834128547   2182442.60408882
S46  395519.7978412855   2182442.60408882
S46  395521.7674412854   2182442.60408882
S46 395523.73704128544   2182442.60408882
S46 395525.70654128544   2182442.60408882
S46 395527.67614128545   2182442.60408882
S46 395529.64564128546   2182442.60408882
S46  395531.6152412855   2182442.60408882
S46  395533.5848412854   2182442.60408882
S46  395533.5848412854 2182441.6192888203
S46  395533.5848412854   2182440.63448882
S46 395535.33554128546   2182440.63448882
S46 395537.08624128543   2182440.63448882
S46 395538.83694128547   2182440.63448882
S46 395540.58764128544   2182440.63448882
S46  395542.3384412854   2182440.63448882
S46 395544.08914128545   2182440.63448882
S46 395545.83984128543   2182440.63448882
S46 395547.59054128546   2182440.63448882
S46 395549.34124128544   2182440.63448882
S46 395549.34124128544   2182438.66498882
S46 395551.31084128545   2182438.66498882
S46 395553.28044128546   2182438.66498882
S46 395555.24994128547   2182438.66498882
S46  395557.2195412854   2182438.66498882
S46  395559.1890412854   2182438.66498882
S46 395561.15864128544   2182438.66498882
S46 395563.12824128545   2182438.66498882
S46 395565.09774128546   2182438.66498882
S46 395565.09774128546   2182437.68018882
S46 395565.09774128546   2182436.69538882
S46 395566.84844128543   2182436.69538882
S46 395568.59924128547   2182436.69538882
S46 395570.34994128544   2182436.69538882
S46  395572.1006412854   2182436.69538882
S46 395573.85134128545   2182436.69538882
S46  395575.6020412854   2182436.69538882
S46 395577.35284128546   2182436.69538882
S46 395579.10354128544   2182436.69538882
S46  395580.8542412855   2182436.69538882
S46  395580.8542412855 2182435.7105888203
S46  395580.8542412855 2182434.7258888204
S46  395582.8238412854 2182434.7258888204
S46 395584.79334128543 2182434.7258888204
S46 395586.76294128544 2182434.7258888204
S46 395588.73244128545 2182434.7258888204
S46 395590.70204128546 2182434.7258888204
S46  395592.6716412855 2182434.7258888204
S46  395594.6411412854 2182434.7258888204
S46 395596.61074128543 2182434.7258888204
S46 395596.61074128543   2182432.75628882
S46 395598.58024128544   2182432.75628882
S46 395600.54984128545   2182432.75628882
S46 395602.51944128546   2182432.75628882
S46 395604.48894128547   2182432.75628882
S46  395606.4585412854   2182432.75628882
S46  395608.4280412854   2182432.75628882
S46 395610.39764128544   2182432.75628882
S46 395612.36724128545   2182432.75628882
S46 395614.33674128546   2182432.75628882
S46 395614.33674128546   2182431.77148882
S46 395614.33674128546   2182430.78668882
S46 395616.30634128547   2182430.78668882
S46  395618.2758412854   2182430.78668882
S46  395620.2454412854   2182430.78668882
S46 395622.21504128544   2182430.78668882
S46 395624.18454128545   2182430.78668882
S46 395626.15414128546   2182430.78668882
S46 395628.12364128546   2182430.78668882
S46  395630.0932412854   2182430.78668882
S46  395630.0932412854 2182428.8171888203
S46 395631.84394128545 2182428.8171888203
S46  395633.5946412854 2182428.8171888203
S46 395635.34534128546 2182428.8171888203
S46 395637.09614128544 2182428.8171888203
S46 395638.84684128547 2182428.8171888203
S46 395640.59754128545 2182428.8171888203
S46  395642.3482412854 2182428.8171888203
S46 395644.09894128545 2182428.8171888203
S46 395645.84974128543 2182428.8171888203
S46 395645.84974128543   2182427.83238882
S46 395645.84974128543 2182426.8475888204
S46 395647.60044128547 2182426.8475888204
S46 395649.35114128544 2182426.8475888204
S46  395651.1018412854 2182426.8475888204
S46 395652.85254128545 2182426.8475888204
S46 395654.60334128543 2182426.8475888204
S46 395656.35404128546 2182426.8475888204
S46 395658.10474128544 2182426.8475888204
S46  395659.8554412855 2182426.8475888204
S46 395661.60614128545 2182426.8475888204
S46 395661.60614128545   2182425.86278882
S46 395661.60614128545 2182424.8780888203
S46 395663.57574128546 2182424.8780888203
S46 395665.54534128547 2182424.8780888203
S46  395667.5148412854 2182424.8780888203
S46  395669.4844412854 2182424.8780888203
S46 395671.45394128544 2182424.8780888203
S46 395673.42354128545 2182424.8780888203
S46 395675.39314128546 2182424.8780888203
S46 395677.36264128546 2182424.8780888203
S46 395677.36264128546   2182423.89328882
S46 395677.36264128546 2182422.9084888203
S46 395679.11334128544 2182422.9084888203
S46  395680.8641412854 2182422.9084888203
S46 395682.61484128545 2182422.9084888203
S46  395684.3655412854 2182422.9084888203
S46 395686.11624128546 2182422.9084888203
S46 395687.86694128544 2182422.9084888203
S46  395689.6177412854 2182422.9084888203
S46 395691.36844128545 2182422.9084888203
S46  395693.1191412854 2182422.9084888203
S46  395693.1191412854 2182420.9388888204
S46 395695.08874128544 2182420.9388888204
S46 395697.05824128544 2182420.9388888204
S46 395699.02784128545 2182420.9388888204
S46 395700.99734128546 2182420.9388888204
S46  395702.9669412855 2182420.9388888204
S46  395704.9365412854 2182420.9388888204
S46 395706.90604128543 2182420.9388888204
S46 395708.87564128544 2182420.9388888204
S46 395710.84514128545 2182420.9388888204
S46 395710.84514128545   2182419.95418882
S46 395710.84514128545   2182418.96938882
S46  395712.5959412854   2182418.96938882
S46 395714.34664128546   2182418.96938882
S46 395716.09734128544   2182418.96938882
S46 395717.84804128547   2182418.96938882
S46 395719.59874128544   2182418.96938882
S46  395721.3495412854   2182418.96938882
S46 395723.10024128546   2182418.96938882
S46 395724.85094128543   2182418.96938882
S46 395726.60164128547   2182418.96938882
S46 395726.60164128547   2182417.98458882
S46 395726.60164128547 2182416.9997888203
S46  395728.5712412854 2182416.9997888203
S46  395730.5407412854 2182416.9997888203
S46 395732.51034128544 2182416.9997888203
S46 395734.47994128545 2182416.9997888203
S46 395736.44944128545 2182416.9997888203
S46 395738.41904128547 2182416.9997888203
S46  395740.3885412855 2182416.9997888203
S46  395742.3581412854 2182416.9997888203
S46  395742.3581412854   2182415.03028882
S46 395744.10884128546   2182415.03028882
S46 395745.85954128543   2182415.03028882
S46  395747.6103412855   2182415.03028882
S46 395749.36104128545   2182415.03028882
S46  395751.1117412854   2182415.03028882
S46 395752.86244128546   2182415.03028882
S46 395754.61314128543   2182415.03028882
S46 395756.36394128547   2182415.03028882
S46 395758.11464128544   2182415.03028882
S46 395758.11464128544   2182414.04548882
S46 395758.11464128544   2182413.06068882
S46 395760.08414128545   2182413.06068882
S46 395762.05374128546   2182413.06068882
S46 395764.02324128547   2182413.06068882
S46  395765.9928412854   2182413.06068882
S46 395767.96244128543   2182413.06068882
S46 395769.93194128544   2182413.06068882
S46 395771.90154128545   2182413.06068882
S46 395773.87104128546   2182413.06068882
S46 395773.87104128546   2182412.07588882
S46 395773.87104128546   2182411.09118882
S46  395775.6437412854   2182411.09118882
S46 395777.41634128545   2182411.09118882
S46  395779.1889412854   2182411.09118882
S46 395780.96154128545   2182411.09118882
S46  395782.7341412855   2182411.09118882
S46 395784.50674128544   2182411.09118882
S46 395786.27934128547   2182411.09118882
S46 395788.05194128543   2182411.09118882
S46 395789.82454128546   2182411.09118882
S46  395791.5971412854   2182411.09118882
S46  395791.5971412854   2182409.12158882
S46 395793.56664128543   2182409.12158882
S46 395795.53624128544   2182409.12158882
S46 395797.50584128546   2182409.12158882
S46 395799.47534128546   2182409.12158882
S46  395801.4449412854   2182409.12158882
S46  395803.4144412854   2182409.12158882
S46 395805.38404128543   2182409.12158882
S46 395807.35364128544   2182409.12158882
S46 395807.35364128544 2182408.1367888204
S46 395807.35364128544   2182407.15198882
S46  395809.1043412854   2182407.15198882
S46 395810.85504128545   2182407.15198882
S46  395812.6057412854   2182407.15198882
S46 395814.35644128546   2182407.15198882
S46 395816.10724128544   2182407.15198882
S46  395817.8579412854   2182407.15198882
S46 395819.60864128545   2182407.15198882
S46  395821.3593412854   2182407.15198882
S46 395823.11004128546   2182407.15198882
S46 395823.11004128546 2182406.1672888203
S46 395823.11004128546   2182405.18248882
S46 395824.86084128544   2182405.18248882
S46 395826.61154128547   2182405.18248882
S46 395828.36224128545   2182405.18248882
S46  395830.1129412854   2182405.18248882
S46 395831.86364128545   2182405.18248882
S46 395833.61444128543   2182405.18248882
S46 395835.36514128547   2182405.18248882
S46 395837.11584128544   2182405.18248882
S46  395838.8665412854   2182405.18248882
S46  395838.8665412854   2182403.21288882
S46  395840.8361412854   2182403.21288882
S46 395842.80564128543   2182403.21288882
S46 395844.77524128545   2182403.21288882
S46 395846.74484128546   2182403.21288882
S46 395848.71434128546   2182403.21288882
S46  395850.6839412854   2182403.21288882
S46  395852.6534412854   2182403.21288882
S46 395854.62304128543   2182403.21288882
S46 395854.62304128543 2182402.2280888204
S46 395854.62304128543   2182401.24338882
S46 395856.59264128545   2182401.24338882
S46 395858.56214128545   2182401.24338882
S46 395860.53174128546   2182401.24338882
S46 395862.50124128547   2182401.24338882
S46  395864.4708412854   2182401.24338882
S46 395866.44044128543   2182401.24338882
S46 395868.40994128544   2182401.24338882
S46 395870.37954128545   2182401.24338882
S46 395872.34904128546   2182401.24338882
S46 395872.34904128546   2182399.27378882
S46 395874.31864128547   2182399.27378882
S46  395876.2882412854   2182399.27378882
S46 395878.25774128543   2182399.27378882
S46 395880.22734128544   2182399.27378882
S46 395882.19684128545   2182399.27378882
S46 395884.16644128546   2182399.27378882
S46 395886.13604128547   2182399.27378882
S46  395888.1055412854   2182399.27378882
S46  395888.1055412854 2182398.2889888203
S46  395888.1055412854   2182397.30418882
S46 395889.85624128545   2182397.30418882
S46 395891.60704128543   2182397.30418882
S46 395893.35774128546   2182397.30418882
S46 395895.10844128544   2182397.30418882
S46  395896.8591412855   2182397.30418882
S46 395898.60984128545   2182397.30418882
S46  395900.3605412854   2182397.30418882
S46 395902.11134128546   2182397.30418882
S46 395903.86204128544   2182397.30418882
S46 395903.86204128544   2182396.31948882
S46 395903.86204128544   2182395.33468882
S46 395905.83154128544   2182395.33468882
S46 395907.80114128545   2182395.33468882
S46 395909.77074128547   2182395.33468882
S46  395911.7402412855   2182395.33468882
S46  395913.7098412854   2182395.33468882
S46 395915.67934128543   2182395.33468882
S46 395917.64894128544   2182395.33468882
S46 395919.61854128545   2182395.33468882
S46 395919.61854128545   2182393.36508882
S46  395921.3692412854   2182393.36508882
S46 395923.11994128546   2182393.36508882
S46 395924.87064128544   2182393.36508882
S46 395926.62134128547   2182393.36508882
S46 395928.37214128545   2182393.36508882
S46  395930.1228412854   2182393.36508882
S46 395931.87354128546   2182393.36508882
S46 395933.62424128543   2182393.36508882
S46 395935.37494128547   2182393.36508882
S46 395935.37494128547 2182392.3802888202
S46 395935.37494128547 2182391.3955888203
S46 395937.14754128543 2182391.3955888203
S46 395938.92024128546 2182391.3955888203
S46 395940.69284128543 2182391.3955888203
S46 395942.46544128546 2182391.3955888203
S46  395944.2380412854 2182391.3955888203
S46 395946.01064128545 2182391.3955888203
S46  395947.7832412854 2182391.3955888203
S46 395949.55584128544 2182391.3955888203
S46 395951.32844128547 2182391.3955888203
S46 395953.10104128544 2182391.3955888203
S46 395953.10104128544   2182390.41078882
S46 395953.10104128544 2182389.4259888204
S46 395955.07054128544 2182389.4259888204
S46 395957.04014128546 2182389.4259888204
S46 395959.00974128547 2182389.4259888204
S46  395960.9792412855 2182389.4259888204
S46 395961.71064128546 2182389.4259888204
S46  395962.9488412854   2182389.42588882
S46 395964.91844128544   2182389.42588882
S46 395964.91844128544   2182387.45638882
S46 395966.23144128546   2182387.45638882
S46  395967.5444412854   2182387.45638882
S46 395968.85754128546   2182387.45638882
S46 395968.85754128546   2182386.47158882
S46 395968.85754128546   2182385.48678882
S46 395970.82704128546   2182385.48678882
S46 395970.82704128546 2182384.5019888203
S46 395970.82704128546 2182383.5172888204
S46 395972.14014128543 2182383.5172888204
S46 395973.45314128546 2182383.5172888204
S46  395974.7662412854 2182383.5172888204
S46  395974.7662412854   2182381.54768882
S46 395976.07924128545   2182381.54768882
S46  395977.3922412854   2182381.54768882
S46 395978.70534128544   2182381.54768882
S46 395978.70534128544   2182380.56288882
S46 395978.70534128544   2182379.57808882
S46 395980.67484128545   2182379.57808882
S46 395982.64444128546   2182379.57808882
S46 395982.64444128546   2182378.59338882
S46 395982.64444128546 2182377.6085888203
S46  395983.9574412854 2182377.6085888203
S46 395985.27054128546 2182377.6085888203
S46  395986.5835412854 2182377.6085888203
S46  395986.5835412854 2182375.6389888204
S46 395988.55314128543 2182375.6389888204
S46 395988.55314128543   2182374.65418882
S46 395988.55314128543 2182373.6694888202
S46 395989.86614128546 2182373.6694888202
S46  395991.1792412854 2182373.6694888202
S46 395992.49224128545 2182373.6694888202
S46 395992.49224128545   2182372.68468882
S46 395992.49224128545 2182371.6998888203
S46  395993.8052412854 2182371.6998888203
S46 395995.11834128544 2182371.6998888203
S46 395996.43134128547 2182371.6998888203
S46 395996.43134128547 2182369.7302888203
S46  395998.4009412854 2182369.7302888203
S46  396000.3704412854 2182369.7302888203
S46  396000.3704412854   2182368.74558882
S46  396000.3704412854   2182367.76078882
S46 396002.34004128544   2182367.76078882
S46 396002.34004128544   2182366.77598882
S46 396002.34004128544 2182365.7911888203
S46 396003.65304128546 2182365.7911888203
S46 396004.96614128543 2182365.7911888203
S46 396006.27914128546 2182365.7911888203
S46 396006.27914128546   2182363.82168882
S46  396007.5922412854   2182363.82168882
S46 396008.90524128545   2182363.82168882
S46  396010.2182412854   2182363.82168882
S46  396010.2182412854   2182363.49108882
S46  396003.7465412854 2182363.1055888203
S46 395982.80384128547 2182364.3533888203
S46  395969.8935412854 2182331.3253888204
S46  395950.4758412854 2182334.3689888204
S46  395477.7243412855 2182408.4709888203
S46  395471.6571412854   2182448.51278882
S46  395472.0907412855   2182448.51278882
S46 395473.84154128545   2182448.51278882
S46  395475.5922412854   2182448.51278882
S46 395477.34294128546   2182448.51278882
S46 395479.09364128544   2182448.51278882
S46 395480.84434128547   2182448.51278882
S46 395482.59514128545   2182448.51278882
S46  395484.3458412854   2182448.51278882
S46  395484.3458412854 2182447.5279888203
S47  395937.2807970366  2183483.891634969
S47 395990.14389703656  2183387.714434969
S47  395910.4778970366  2183396.598934969
S47 395872.34379703656  2183400.851734969
S47  395866.7479970366 2183419.4691349687
S47  395839.1802970366  2183409.455534969
S47  395830.4783970366 2183405.5206349688
S47  395768.7111970366  2183412.409034969
S47 395738.19049703656 2183480.5823349687
S47  395833.4572970366  2183524.192734969
S47  395816.7569970366  2183580.072534969
S47 395874.58029703656 2183597.9666349688
S47 395900.01289703656 2183551.6955349687
S47  395937.2807970366  2183483.891634969
S48  394484.7720290427 2183238.0291037573
S48  394464.2111774826 2183227.1549629397
S48 394588.69466487784  2183610.950927266
S48  394707.7961518944 2183648.1372984764
S48  394484.7720290427 2183238.0291037573
S49 394707.7961525501  2183648.137263341
S49 394588.6946525501 2183610.9509633407
S49 394588.0749525501  2183615.038863341
S49 394578.1957525501  2183680.202963341
S49 394627.5388525501  2183701.312363341
S49 394663.1608525501  2183692.157763341
S49 394710.8062525501  2183663.585063341
S49 394718.3400525501  2183659.067063341
S49 394707.7961525501  2183648.137263341
S50  394627.5388992717  2183701.312366516
S50   394578.195796747 2183680.2029607557
S50 394486.66746086517  2183715.715050995
S50 394530.65893104696  2183740.143076797
S50  394614.0388426707 2183765.1186710224
S50  394627.5388992717  2183701.312366516
S51 394731.96672130254  2184199.551977495
S51 394706.84129844507 2184176.2721145055
S51 394696.34171207115 2184138.6061066925
S51  394649.6438260487 2184084.7639143676
S51 394641.38049073325 2184075.2363312063
S51  394636.3417120713 2184043.6061066953
S51 394616.50560176815  2184017.738196734
S51 394615.84641192504 2184001.1097377483
S51  394640.4768279875 2183989.4850098197
S51 394656.34171207127 2183968.7965215365
S51 394659.36268950556 2183962.3957498115
S51   394565.798012844 2183989.0289467936
S51   394167.779584672  2184203.162413604
S51 394731.96672130254  2184199.551977495
S52  394776.5377145921  2184199.266751062
S52 394759.47628154716 2184099.2071461147
S52 394726.37799999974  2184096.038800002
S52  394649.6438260487 2184084.7639143676
S52 394696.34171207115 2184138.6061066925
S52 394706.84129844507 2184176.2721145055
S52 394731.96672130254  2184199.551977495
S52  394776.5377145921  2184199.266751062
S53  394615.6833166753  2183771.405632266
S53  394614.0388426707 2183765.1186710224
S53 394530.65893104696  2183740.143076797
S53 394596.53404931223 2183814.0934840287
S53  394615.6833166753  2183771.405632266
S54  394715.7110961442 2183763.4616804677
S54 394670.06109614426  2183760.813480468
S54 394657.23119614425  2183778.998080468
S54 394707.14769614424  2183855.613380468
S54 394712.56809614424  2183863.933080468
S54 394712.90639614424 2183853.1184804677
S54  394715.7110961442 2183763.4616804677
S55  394191.3419143398  2182939.707179187
S55  394206.3348143398  2182905.098979187
S55  394244.8727143398 2182918.6060791872
S55  394258.6234143398  2182908.382679187
S55  394271.1511143398  2182884.707179187
S55  394231.3419143398 2182848.6060791872
S55  394191.3419143398 2182843.1397791873
S55  394199.8094143398  2182791.141479187
S55  394206.3419143398  2182778.796479187
S55  394211.1511143398 2182748.6060791872
S55  394220.2470143398  2182731.416179187
S55 394221.36321433977  2182703.258579187
S55  394221.9112143398  2182689.433679187
S55  394219.2789143398  2182685.608279187
S55  394188.5970143398  2182695.405479187
S55  393496.9261143398 2182906.6918791872
S55  394221.7466143398  2183113.583479187
S55  394223.6430143398  2183065.738679187
S55  394212.6762143398  2183055.576279187
S55  394200.4712143398  2183032.511079187
S55  394211.1511143398  2182971.176879187
S55  394206.3419143398 2182953.6060791872
S55  394191.3419143398  2182939.707179187
S56  394871.1469142632 2182984.6208217135
S56 394876.12164280587 2182980.6717321645
S56 394785.28909999883 2182865.4349000026
S56  394770.8010972552  2182834.941380542
S56 394221.36318181007  2182703.258531109
S56  394220.2470293072  2182731.416135992
S56 394211.15112093335  2182748.606106691
S56 394206.34188836446 2182778.7965215365
S56 394199.80941827176 2182791.1415068884
S56 394191.34188836446  2182843.139802398
S56 394231.34188836435  2182848.606106693
S56  394271.1511209331 2182884.7071438036
S56 394258.62338543695 2182908.3827123577
S56  394244.8727302617 2182918.6061066925
S56 394206.33482884365  2182905.099016653
S56 394191.34188836446 2182939.7071438013
S56  394206.3418883667 2182953.6061066943
S56 394211.15112093335  2182971.176907085
S56 394200.47120511427 2183032.5111213406
S56 394212.67622891703 2183055.5763141145
S56  394223.6430273546  2183065.738640871
S56  394221.7466085898  2183113.583431719
S56 394355.03948123276  2183151.630336701
S56  394871.1469142632 2182984.6208217135
S57  394721.1412765767 2183659.3999324334
S57  394718.3400765766 2183659.0671324334
S57 394710.80627657665 2183663.5850324333
S57  394663.1608765767 2183692.1578324335
S57 394670.06107657665  2183760.813432433
S57  394715.7111765767 2183763.4616324333
S57 394715.96537657664 2183762.9295324334
S57 394720.91197657667 2183663.9852324333
S57  394721.1412765767 2183659.3999324334
S58 394724.53229955025 2183664.1285613077
S58 394720.91199955024 2183663.9851613077
S58  394715.9653995502 2183762.9295613077
S58 394762.86029955023 2183764.8566613076
S58 394771.17459955026 2183765.1982613076
S58 394792.59129955026 2183726.4995613075
S58 394793.04189955024 2183718.9413613076
S58 394778.18159955024 2183717.9063613075
S58 394740.62199955026 2183715.2942613075
S58  394731.8735995502  2183702.580761308
S58 394724.53229955025 2183664.1285613077
S59 394670.06111470127  2183760.813463965
S59  394663.1608384915 2183692.1578111183
S59  394627.5388992717  2183701.312366516
S59  394614.0388426707 2183765.1186710224
S59  394615.6833166753  2183771.405632266
S59  394657.2312091163  2183778.998061337
S59 394670.06111470127  2183760.813463965
S60 394762.86030545906 2183764.8566244314
S60 394715.96537408384 2183762.9295373834
S60 394715.71113883675  2183763.461679192
S60 394712.90644197713  2183853.118461086
S60  394714.6605053822 2183852.3585273963
S60 394722.38329454156 2183835.9950147006
S60  394747.1138094353 2183813.0812055212
S60  394746.0701088474   2183786.75183267
S60 394762.86030545906 2183764.8566244314
S61 394791.3266096714 2183362.2812615447
S61 394484.7720096714 2183238.0290615447
S61 394707.7961096714  2183648.137261545
S61 394718.3400096714  2183659.067061545
S61 394721.1412096714 2183659.3999615447
S61 394720.9120096714 2183663.9851615448
S61 394724.5323096714 2183664.1285615447
S61 394731.8736096714 2183702.5806615446
S61 394740.6220096714  2183715.294261545
S61 394778.1816096714 2183717.9063615445
S61 394793.0419096714 2183718.9413615447
S61 394797.5440096714 2183643.4317615447
S61 394818.2412096714 2183629.7549615446
S61 394821.0343096714  2183618.381161545
S61 394823.0010096714  2183491.228761545
S61 394791.3266096714 2183362.2812615447
S62 394965.58563253575 2183752.4910610933
S62 395008.40693253576 2183738.3202610933
S62 395031.74413253576 2183740.6660610936
S62 395033.31103253574 2183730.0787610933
S62 395166.38853253576 2183686.0394610935
S62  395201.5496325357 2183605.4619610934
S62 395196.63233253575 2183589.3130610934
S62  395056.3719325357 2183574.2629610933
S62 395054.90353253577 2183574.1054610936
S62 394821.03433253575 2183618.3811610932
S62 394818.24123253574 2183629.7549610934
S62 394797.54403253575 2183643.4317610934
S62 394793.04193253577 2183718.9413610934
S62 394866.54153253575 2183724.0600610934
S62 394940.36243253574 2183731.4804610936
S62 394965.58563253575 2183752.4910610933
S63  394657.2312239007 2183778.9980808133
S63  394615.6833239007 2183771.4056808134
S63  394596.5340239007 2183814.0934808133
S63 394565.79802390066  2183989.028980813
S63 394659.36272390065  2183962.395780813
S63 394731.77372390067 2183941.7839808133
S63  394712.5681239007 2183863.9330808134
S63  394707.1477239007  2183855.613380813
S63  394657.2312239007 2183778.9980808133
S64  395511.2715328111  2183261.179295509
S64  395492.0648328111 2183252.3663955093
S64  395496.5619328111 2183260.8725955095
S64  395440.6174328111 2183316.2497955095
S64  395438.3819328111 2183321.0593955093
S64 395432.73893281113 2183341.0437955093
S64  395464.8900328111 2183355.4734955095
S64  395562.7369328111 2183400.2648955095
S64  395605.0838328111 2183306.4219955094
S64  395508.8794328111  2183266.042495509
S64  395511.2715328111  2183261.179295509
S65  395349.2269241214  2183007.502099105
S65 395325.71792412136 2182973.7489991053
S65  395195.5945241214 2183179.6806991054
S65 395154.96872412134  2183216.575799105
S65 395204.31612412137 2183238.5849991054
S65 395225.55382412137  2183248.057199105
S65  395298.2954241214 2183280.7042991053
S65 395309.66172412137  2183255.227699105
S65  395349.2269241214  2183007.502099105
S66  395138.7686381759 2183749.335011776
S66  395163.3495381759 2183693.003811776
S66  395166.3885381759 2183686.039411776
S66  395033.3110381759 2183730.078711776
S66  395031.7441381759 2183740.666111776
S66  395008.4069381759 2183738.320311776
S66  394965.5856381759 2183752.491111776
S66 394933.43563817587 2183808.020311776
S66  395015.3104381759 2183879.310911776
S66  395014.4685381759 2183891.776511776
S66  395020.9065381759 2183952.356611776
S66  395026.7243381759 2184000.657311776
S66  395158.4048381759 2184003.907111776
S66  395175.0767381759 2184005.764811776
S66  395236.7128381759 2184012.632711776
S66 395298.71133817587 2183980.886911776
S66  395250.6225381759 2183832.643211776
S66  395279.6793381759 2183767.537011776
S66  395227.3083381759 2183760.772011776
S66  395138.7686381759 2183749.335011776
S67  395550.4716698257 2183660.804524084
S67  395491.4186698257 2183597.773724084
S67  395466.6478698257 2183600.600524084
S67  395438.2802698257 2183575.499224084
S67 395410.63616982574 2183540.754724084
S67 395386.84196982573 2183523.479024084
S67  395371.0607698257 2183558.583624084
S67  395346.6992698257 2183614.288724084
S67 395279.67926982575 2183767.537024084
S67 395250.62256982573 2183832.643124084
S67  395298.7113698257 2183980.886824084
S67 395349.82246982574 2184001.886724084
S67 395391.00016982574 2184009.506824084
S67  395551.5413698257 2183905.418224084
S67  395616.2714698257 2183731.036624084
S67  395550.4716698257 2183660.804524084
S68 395054.90351148654 2183574.1054473645
S68 394823.00102275587 2183491.2287272173
S68  394821.0343054082 2183618.3811192415
S68 395054.90351148654 2183574.1054473645
S69 395077.07061595307 2183434.4078418785
S69 394913.02471595304 2183331.6972418786
S69 394791.32661595306 2183362.2812418784
S69  394823.0010159531 2183491.2287418786
S69 395054.90351595305 2183574.1054418785
S69 395056.37191595306 2183574.2630418786
S69 395196.63231595303  2183589.313141878
S69 395192.11921595305 2183506.4408418783
S69 395077.07061595307 2183434.4078418785
S70   395043.492015885  2183218.547852185
S70 395026.07111588505  2183212.691952185
S70   394970.219515885 2183243.4356521848
S70   394913.024715885  2183331.697252185
S70   395077.070615885  2183434.407852185
S70   395079.188015885  2183420.101052185
S70 395097.66901588504  2183285.692052185
S70   395105.628315885  2183227.805652185
S70   395043.492015885  2183218.547852185
S71   394933.435631113  2183808.020280628
S71 394965.58558835357  2183752.491110076
S71   394940.362434073   2183731.48050641
S71  394866.5414999992  2183724.060100005
S71 394793.04191941983  2183718.941325886
S71 394792.59127369657 2183726.4995395932
S71   394876.947054337  2183879.039730656
S71   394933.435631113  2183808.020280628
S72 395722.96998491394 2183356.9066264187
S72 395665.33758491394 2183286.9756264184
S72   395608.725484914 2183305.2467264184
S72 395605.08388491394 2183306.4220264186
S72 395562.73688491393 2183400.2649264187
S72 395536.95918491395 2183457.3895264184
S72 395541.89148491394  2183488.856126419
S72  395544.0283849139 2183489.1131264186
S72   395728.677684914 2183501.8308264185
S72 395738.19048491394 2183480.5823264187
S72 395768.71118491393  2183412.409026419
S72 395722.96998491394 2183356.9066264187
S73 395562.73686933005 2183400.264889606
S73 395464.88996933005 2183355.473489606
S73    395441.19956933 2183404.957389606
S73    395438.23236933 2183411.155189606
S73 395414.62736933003 2183461.803489606
S73 395412.99276933004 2183465.425189606
S73    395526.14036933 2183519.368389606
S73    395529.43486933 2183512.986589606
S73    395541.89146933 2183488.856089606
S73    395536.95916933 2183457.389489606
S73 395562.73686933005 2183400.264889606
S74  395718.3873577088  2183597.224703946
S74 395738.84595770884 2183555.9620039463
S74 395816.75695770886 2183580.0725039463
S74  395833.4572577088  2183524.192703946
S74 395738.19045770884  2183480.582403946
S74  395728.6776577089  2183501.830903946
S74  395544.0283577088  2183489.113103946
S74 395541.89145770884  2183488.856103946
S74 395529.43485770887  2183512.986503946
S74 395616.84245770884  2183551.954303946
S74  395718.3873577088  2183597.224703946
S75  395998.8685673728 2183575.5344763813
S75  396000.2489673728 2183571.5551763815
S75  395996.6152673728  2183573.369476381
S75  395966.8965673728  2183544.815776381
S75 395960.48086737277 2183532.3621763815
S75  395945.3935673728  2183485.869276381
S75  395937.2808673728 2183483.8915763814
S75  395900.0128673728 2183551.6955763814
S75  395874.5802673728 2183597.9666763814
S75  395918.7596673728 2183727.3687763815
S75  395948.4788673728 2183720.7859763815
S75  395998.8685673728 2183575.5344763813
S76 396078.37397692335 2183865.4916868885
S76  396077.5262856949  2183812.560990212
S76   396052.447893006 2183741.8620527545
S76  396031.9013806821 2183723.4110204214
S76 395948.47887490457 2183720.7859709114
S76  395918.7596421989 2183727.3687713086
S76  395878.1767344541 2183771.8914753078
S76  395878.1953443026  2183893.293587595
S76 396078.37397692335 2183865.4916868885
S77  395491.4186289344  2183597.773768562
S77   395526.140404125 2183519.3683598363
S77  395412.9927996726  2183465.425234832
S77 395399.61139999965  2183495.073999999
S77  395386.8419591552 2183523.4790265923
S77 395410.63619999937 2183540.7547000023
S77  395438.2803000001  2183575.499200001
S77  395466.6478923365  2183600.600540069
S77  395491.4186289344  2183597.773768562
S78 395616.84243119723  2183551.954330055
S78 395529.43483119726  2183512.986530055
S78 395526.14043119724  2183519.368330055
S78 395491.41863119724  2183597.773730055
S78 395550.47163119726  2183660.804530055
S78 395616.27153119724  2183731.036630055
S78  395669.0431311973  2183708.487230055
S78 395671.88803119725 2183701.7848300547
S78 395703.67643119727 2183626.8953300547
S78  395718.3874311973  2183597.224730055
S78 395616.84243119723  2183551.954330055
S79 396617.06259224075   2181794.61888112
S79 396319.15752785606  2181383.262635215
S79 395920.45101400575 2180894.2962566917
S79  395900.0088845752 2181011.1512764418
S79 395921.31186561676  2181401.964738328
S79   395939.284869903 2181462.5175120924
S79  396096.8550197319  2181799.220065199
S79    396508.51690961  2181950.058172173
S79    396508.51690961 2181949.2293811194
S79    396508.51690961  2181948.244581119
S79  396509.5017096104  2181948.244581119
S79  396510.4864096098  2181948.244581119
S79   396510.486409612 2181946.2749811183
S79  396512.4560096106 2181946.2749811183
S79  396512.4560096084  2181944.961981119
S79  396512.4560096106 2181943.6488811187
S79  396512.4560096084 2181942.3358811196
S79  396513.4408096088 2181942.3358811177
S79  396514.4256096092 2181942.3358811177
S79  396514.4256096092  2181940.366281119
S79   396516.395109609  2181940.366281119
S79   396516.395109609   2181939.05328112
S79   396516.395109609 2181937.7402811185
S79   396516.395109609  2181936.427181118
S79  396518.3647096098  2181936.427181118
S79  396518.3647096098 2181934.4576811185
S79   396519.349509608  2181934.457681121
S79 396520.33420960966 2181934.4576811185
S79 396520.33420960966 2181933.1445811186
S79 396520.33420960966 2181931.8315811194
S79 396520.33420960966  2181930.518481119
S79  396522.3038096105  2181930.518481119
S79  396522.3038096105 2181928.5489811194
S79 396524.27340960904 2181928.5489811194
S79 396524.27340960904  2181926.579381121
S79 396524.27340960904  2181924.609881119
S79  396526.2429096089  2181924.609881119
S79  396526.2429096111 2181923.6250811205
S79  396526.2429096111 2181922.6402811203
S79 396527.22770960926  2181922.640281118
S79 396528.21250960743  2181922.640281118
S79  396528.2125096097  2181921.327281119
S79  396528.2125096097 2181920.0141811185
S79  396528.2125096097 2181918.7011811193
S79  396530.1820096095 2181918.7011811193
S79  396530.1820096095 2181916.7315811208
S79  396532.1516096081  2181916.731581119
S79  396532.1516096103 2181914.7620811188
S79  396532.1516096081   2181912.79248112
S79  396534.1212096111   2181912.79248112
S79  396534.1212096089   2181911.80768112
S79  396534.1212096089 2181910.8228811193
S79  396535.1059096083 2181910.8228811193
S79  396536.0907096109 2181910.8228811193
S79  396536.0907096087   2181909.83818112
S79  396536.0907096087 2181908.8533811197
S79  396538.0603096095 2181908.8533811197
S79  396538.0603096095  2181906.883781119
S79  396538.0603096073  2181904.914281119
S79 396540.02980960935  2181904.914281119
S79 396540.02980960935 2181903.9294811185
S79 396540.02980960935 2181902.9446811182
S79 396541.01460960973 2181902.9446811182
S79  396541.9994096102 2181902.9446811182
S79  396541.9994096079 2181900.9750811197
S79  396541.9994096102 2181899.0055811196
S79  396543.9690096087 2181899.0055811196
S79  396543.9690096087 2181898.0207811194
S79  396543.9690096087  2181897.035981119
S79  396545.9385096108  2181897.035981119
S79 396545.93850960856  2181895.066481119
S79 396546.92330960894  2181895.066481119
S79  396547.9081096094  2181895.066481119
S79  396547.9081096094  2181893.753381119
S79  396547.9081096094   2181892.44038112
S79  396547.9081096094 2181891.1272811196
S79 396549.87760960916 2181891.1272811196
S79 396549.87760960916   2181889.15778112
S79    396551.84720961   2181889.15778112
S79    396551.84720961   2181887.84468112
S79    396551.84720961  2181886.531681121
S79    396551.84720961 2181885.2186811194
S79 396552.83200960816 2181885.2186811194
S79  396553.8168096086 2181885.2186811194
S79  396553.8168096086  2181883.249081121
S79  396555.7863096106  2181883.249081121
S79  396555.7863096084   2181881.27948112
S79  396555.7863096106 2181879.3099811203
S79  396557.7559096092 2181879.3099811203
S79  396557.7559096092 2181878.3251811196
S79  396557.7559096092 2181877.3403811194
S79 396558.74070960964 2181877.3403811194
S79 396559.72540960903 2181877.3403811194
S79 396559.72540961124 2181876.3555811187
S79 396559.72540960903 2181875.3708811193
S79 396561.69500960986 2181875.3708811193
S79 396561.69500961207  2181873.401281119
S79 396561.69500960986   2181871.43168112
S79  396563.6646096107   2181871.43168112
S79  396563.6646096084 2181870.4469811185
S79  396563.6646096107   2181869.46218112
S79  396564.6493096101   2181869.46218112
S79 396565.63410961046   2181869.46218112
S79 396565.63410960825 2181867.4925811193
S79 396565.63410961046 2181865.5230811196
S79  396567.6037096091 2181865.5230811196
S79  396567.6037096091 2181864.5382811194
S79  396567.6037096091 2181863.5534811188
S79 396569.57320961106 2181863.5534811188
S79 396569.57320960885 2181862.5686811185
S79 396569.57320960885   2181861.58388112
S79  396571.5428096097  2181861.583881118
S79  396571.5428096097  2181859.614381118
S79  396571.5428096097 2181857.6447811197
S79  396572.5276096101 2181857.6447811197
S79 396573.51230960723 2181857.6447811197
S79  396573.5123096095  2181856.659981119
S79  396573.5123096095   2181855.67528112
S79 396575.48190960806   2181855.67528112
S79  396575.4819096103  2181853.705681119
S79 396575.48190960806  2181851.736081118
S79  396577.4515096089  2181851.736081118
S79  396577.4515096089 2181849.7665811204
S79  396578.4362096105 2181849.7665811204
S79  396579.4210096087 2181849.7665811204
S79  396579.4210096087   2181848.78178112
S79  396579.4210096087 2181847.7969811196
S79 396581.39060960955 2181847.7969811196
S79 396581.39060960955 2181846.4839811185
S79 396581.39060960955  2181845.170881118
S79 396581.39060960955  2181843.857881119
S79  396583.3601096093  2181843.857881119
S79  396583.3601096093 2181841.8882811205
S79 396584.34490960976 2181841.8882811205
S79 396585.32970961015  2181841.888281118
S79 396585.32970961015 2181839.9187811185
S79 396585.32970961015   2181837.94918112
S79   396587.299309611   2181837.94918112
S79 396587.29930960876 2181836.9643811197
S79   396587.299309611  2181835.979681118
S79 396589.26880961074  2181835.979681118
S79 396589.26880961074 2181834.0100811194
S79 396591.23840960936 2181834.0100811194
S79 396591.23840960936   2181832.69708112
S79 396591.23840960936   2181831.38398112
S79 396591.23840960936  2181830.070981119
S79 396592.22320960753  2181830.070981119
S79  396593.2079096092  2181830.070981119
S79  396593.2079096092  2181829.086181118
S79  396593.2079096092  2181828.101381118
S79    396595.17750961 2181828.1013811203
S79    396595.17750961   2181826.13188112
S79    396595.17750961 2181824.1622811193
S79  396597.1471096086 2181824.1622811193
S79  396597.1471096108 2181822.1927811196
S79  396598.1318096102 2181822.1927811196
S79  396599.1166096106 2181822.1927811196
S79  396599.1166096106 2181820.8796811197
S79  396599.1166096106  2181819.566681118
S79  396599.1166096084   2181818.25358112
S79 396601.08620960923   2181818.25358112
S79 396601.08620960923 2181817.2688811184
S79 396601.08620960923  2181816.284081118
S79  396602.0710096096  2181816.284081118
S79   396603.055709609  2181816.284081118
S79   396603.055709609 2181814.3144811196
S79 396605.02530960983 2181814.3144811196
S79 396605.02530960983  2181813.001481118
S79 396605.02530960983 2181811.6883811182
S79 396605.02530960983  2181810.375381119
S79 396606.99490961066  2181810.375381119
S79 396606.99490961066 2181808.4057811205
S79 396608.96440961043  2181808.405781118
S79 396608.96440961043 2181806.4362811204
S79 396608.96440961043 2181804.4666811177
S79 396609.94920960866 2181804.4666811195
S79 396610.93400960905 2181804.4666811195
S79 396610.93400960905 2181803.4818811193
S79 396610.93400960905   2181802.49718112
S79  396612.9035096089   2181802.49718112
S79  396612.9035096089 2181801.5123811197
S79  396612.9035096089  2181800.527581119
S79  396614.8731096097  2181800.527581119
S79  396614.8731096097 2181798.5579811204
S79  396614.8731096097 2181796.5884811184
S79  396615.8579096101 2181796.5884811184
S79  396616.8427096105 2181796.5884811184
S79  396616.8427096105  2181795.603681118
S79  396616.8427096105   2181794.61888112
S79 396617.06259224075   2181794.61888112
S80 396842.34921636875  2181509.032781119
S80 396494.86586482305 2180574.6916665025
S80 396357.03644127643 2180221.2012811187
S80 396353.74650960957 2180221.2012811187
S80 396348.74650960957 2180221.2012811187
S80 396343.74650960957 2180221.2012811187
S80 396338.74650960957 2180221.2012811187
S80  396333.7465096096 2180221.2012811187
S80  396328.7465096096 2180221.2012811187
S80  396323.7465096096 2180221.2012811187
S80  396318.7465096097 2180221.2012811187
S80  396313.7465096097 2180221.2012811187
S80  396308.7465096097 2180221.2012811187
S80 396303.74650960974 2180221.2012811187
S80 396298.74650960974 2180221.2012811187
S80 396293.74650960974 2180221.2012811187
S80 396288.74650960974 2180221.2012811187
S80  396283.7465096098 2180221.2012811187
S80  396278.7465096098 2180221.2012811187
S80  396273.7465096098 2180221.2012811187
S80 396268.74650960986 2180221.2012811187
S80 396263.74650960986 2180221.2012811187
S80 396258.74650960986 2180221.2012811187
S80  396253.7465096099 2180221.2012811187
S80  396248.7465096099 2180221.2012811187
S80  396243.7465096099 2180221.2012811187
S80  396238.7465096099 2180221.2012811187
S80    396233.74650961 2180221.2012811187
S80    396228.74650961 2180221.2012811187
S80    396223.74650961 2180221.2012811187
S80 396218.74650961003 2180221.2012811187
S80 396213.74650961003 2180221.2012811187
S80 396208.74650961003 2180221.2012811187
S80  396203.7465096101 2180221.2012811187
S80  396198.7465096101  2180221.201281121
S80  396193.7465096101 2180221.2012811187
S80  396193.7465096101 2180226.2012811187
S80  396193.7465096101 2180231.2012811187
S80  396188.7465096079 2180231.2012811187
S80 396183.74650961015 2180231.2012811187
S80 396178.74650961015 2180231.2012811187
S80 396173.74650960794 2180231.2012811187
S80  396168.7465096102 2180231.2012811187
S80  396163.7465096102 2180231.2012811187
S80  396158.7465096102 2180231.2012811187
S80   396153.746509608 2180231.2012811187
S80 396148.74650960806 2180231.2012811187
S80 396143.74650961027 2180231.2012811187
S80 396138.74650961027 2180231.2012811187
S80  396133.7465096103 2180231.2012811187
S80  396128.7465096081 2180231.2012811187
S80  396123.7465096103 2180231.2012811187
S80  396118.7465096082 2180231.2012811187
S80  396113.7465096104 2180231.2012811187
S80  396108.7465096104 2180231.2012811187
S80  396103.7465096082 2180231.2012811187
S80 396098.74650961044 2180231.2012811187
S80 396093.74650960823 2180231.2012811187
S80 396088.74650961044 2180231.2012811187
S80  396083.7465096105 2180231.2012811187
S80  396078.7465096105 2180231.2012811187
S80  396073.7465096105 2180231.2012811187
S80 396068.74650961056 2180231.2012811187
S80 396063.74650961056 2180231.2012811187
S80 396058.74650961056 2180231.2012811187
S80 396053.74650960835 2180231.2012811187
S80  396048.7465096106 2180231.2012811187
S80  396043.7465096106 2180231.2012811187
S80  396038.7465096084 2180231.2012811187
S80 396033.74650960846 2180231.2012811187
S80  396028.7465096107 2180231.2012811187
S80  396023.7465096107 2180231.2012811187
S80 396018.74650961073 2180231.2012811187
S80  396013.7465096085 2180231.2012811187
S80  396008.7465096085 2180231.2012811187
S80  396003.7465096085 2180231.2012811187
S80  395998.7465096108 2180231.2012811187
S80  395993.7465096086 2180231.2012811187
S80  395988.7465096086 2180231.2012811187
S80 395983.74650960864 2180231.2012811187
S80 395978.74650960864 2180231.2012811187
S80 395973.74650960864 2180231.2012811187
S80  395968.7465096109 2180231.2012811187
S80  395963.7465096087 2180231.2012811187
S80  395958.7465096109 2180231.2012811187
S80  395953.7465096087 2180231.2012811187
S80 395948.74650960875 2180231.2012811187
S80   395945.301352435 2180231.2012811187
S80  395945.4898827678 2180385.6828904436
S80  396696.6753853436 2181603.6747780773
S80    396725.16840961  2181641.475899437
S80    396725.16840961 2181640.9932811195
S80  396727.1380096086 2181640.9932811195
S80  396727.1380096086 2181640.0084811193
S80  396727.1380096108 2181639.0236811186
S80 396729.10760960943 2181639.0236811186
S80 396729.10760960943   2181637.05408112
S80 396729.10760961164 2181635.0845811204
S80  396730.0923096088 2181635.0845811204
S80  396731.0771096092 2181635.0845811204
S80  396731.0771096092   2181634.09978112
S80  396731.0771096092 2181633.1149811195
S80 396733.04670961003 2181633.1149811195
S80 396733.04670961003   2181631.14548112
S80  396734.0315096082   2181631.14548112
S80  396735.0162096098   2181631.14548112
S80  396735.0162096098 2181629.8323811195
S80  396735.0162096098 2181628.5193811203
S80  396735.0162096098 2181627.2062811204
S80 396736.98580961063 2181627.2062811204
S80 396736.98580961063 2181625.2367811184
S80 396738.95540960925 2181625.2367811184
S80 396738.95540960925 2181623.9236811204
S80 396738.95540960925  2181622.610681119
S80 396738.95540960925 2181621.2976811198
S80  396740.9249096091 2181621.2976811198
S80  396740.9249096091  2181619.328081119
S80 396741.90970960946  2181619.328081119
S80 396742.89450960985  2181619.328081119
S80 396742.89450960985 2181618.3432811187
S80 396742.89450960985 2181617.3584811203
S80  396744.8640096097 2181617.3584811203
S80  396744.8640096097 2181615.3889811183
S80  396744.8640096097   2181613.41938112
S80  396746.8336096105   2181613.41938112
S80  396746.8336096105 2181612.4345811196
S80  396746.8336096105   2181611.44988112
S80 396748.80320961133  2181611.449881118
S80  396748.8032096091 2181609.4802811192
S80 396748.80320960685 2181607.5106811184
S80  396749.7879096085 2181607.5106811184
S80  396750.7727096111 2181607.5106811207
S80  396750.7727096111  2181606.525981119
S80  396750.7727096089 2181605.5411811187
S80  396752.7423096097 2181605.5411811187
S80  396752.7423096097   2181603.57158112
S80  396754.7118096095  2181603.571581118
S80  396754.7118096073 2181602.2585811187
S80  396754.7118096095 2181600.9454811187
S80  396754.7118096095 2181599.6324811196
S80 396755.69660960993 2181599.6324811196
S80  396756.6814096103 2181599.6324811196
S80  396756.6814096103 2181597.6628811187
S80 396758.65100960893 2181597.6628811187
S80 396758.65100960893 2181596.3498811196
S80 396758.65100960893  2181595.036881118
S80 396758.65100960893   2181593.72378112
S80 396760.62050960877   2181593.72378112
S80 396760.62050960877   2181592.73898112
S80 396760.62050960877 2181591.7542811204
S80 396761.60530960694 2181591.7542811204
S80 396762.59010960953 2181591.7542811204
S80  396762.5901096118 2181589.7846811195
S80 396764.55960960936 2181589.7846811195
S80  396764.5596096116 2181587.8150811186
S80 396764.55960960936  2181585.845581119
S80   396766.529209608  2181585.845581119
S80  396766.5292096102 2181584.8607811187
S80  396766.5292096102  2181583.875981118
S80  396768.4988096088 2181583.8759811204
S80  396768.4988096088 2181582.8911811197
S80  396768.4988096088 2181581.9064811207
S80  396769.4835096104 2181581.9064811184
S80  396770.4683096086 2181581.9064811207
S80  396770.4683096086   2181579.93688112
S80  396772.4379096094   2181579.93688112
S80  396772.4379096094  2181578.952081119
S80  396772.4379096072  2181577.967281119
S80  396773.4227096098  2181577.967281119
S80  396774.4074096092  2181577.967281119
S80  396774.4074096092 2181576.9825811195
S80  396774.4074096092 2181575.9977811193
S80    396776.37700961 2181575.9977811193
S80    396776.37700961 2181574.0281811184
S80  396778.3466096086 2181574.0281811184
S80  396778.3466096086   2181573.04338112
S80 396778.34660961083 2181572.0586811183
S80  396779.3313096102 2181572.0586811183
S80 396780.31610960845 2181572.0586811183
S80 396780.31610960845 2181570.0890811197
S80  396782.2857096093 2181570.0890811197
S80  396782.2857096093 2181569.1042811195
S80  396782.2857096093  2181568.119481119
S80 396784.25520960905  2181568.119481119
S80 396784.25520960905   2181567.13478112
S80 396784.25520960905  2181566.149981119
S80  396786.2248096099  2181566.149981119
S80  396786.2248096099  2181565.165181119
S80  396786.2248096099 2181564.1803811183
S80 396787.20960960805 2181564.1803811183
S80  396788.1944096107 2181564.1803811183
S80  396788.1944096085 2181562.2108811187
S80  396790.1639096105 2181562.2108811187
S80  396790.1639096105 2181561.2260811203
S80  396790.1639096105   2181560.24128112
S80  396792.1335096091   2181560.24128112
S80  396792.1335096091  2181558.271781118
S80  396793.1183096095 2181558.2717811204
S80  396794.1030096089  2181558.271781118
S80  396794.1030096089   2181557.28698112
S80  396794.1030096089 2181556.3021811196
S80  396796.0726096097 2181556.3021811196
S80  396796.0726096097  2181555.317381119
S80  396796.0726096097 2181554.3325811187
S80  396798.0422096105 2181554.3325811187
S80  396798.0422096105  2181553.347881119
S80  396798.0422096105 2181552.3630811186
S80  396799.0269096099 2181552.3630811186
S80 396800.01170961035 2181552.3630811186
S80 396800.01170961035   2181550.39348112
S80 396801.98130960896  2181550.393481118
S80 396801.98130960896   2181549.40868112
S80  396801.9813096067 2181548.4239811203
S80 396803.95080960874 2181548.4239811203
S80 396803.95080960874   2181547.43918112
S80 396803.95080960874 2181546.4543811195
S80 396805.92040960956 2181546.4543811195
S80 396805.92040960956 2181544.4847811186
S80 396806.90520960995 2181544.4847811186
S80  396807.8900096104 2181544.4847811186
S80  396807.8900096082  2181543.500081119
S80  396807.8900096104  2181542.515281119
S80 396809.85950961016  2181542.515281119
S80 396809.85950961016  2181540.545681118
S80  396811.8291096088  2181540.545681118
S80  396811.8291096088   2181539.56088112
S80  396811.8291096088 2181538.5761811184
S80  396812.8139096092 2181538.5761811184
S80  396813.7986096108 2181538.5761811184
S80  396813.7986096108   2181537.59138112
S80  396813.7986096108   2181536.60658112
S80  396815.7682096094   2181536.60658112
S80  396815.7682096094  2181534.636981119
S80  396816.7530096098  2181534.636981119
S80   396817.737809608  2181534.636981119
S80   396817.737809608 2181533.6522811195
S80  396817.7378096102 2181532.6674811193
S80 396819.70730961004 2181532.6674811193
S80 396819.70730961004 2181531.6826811186
S80 396819.70730961004 2181530.6978811184
S80 396821.67690961086 2181530.6978811184
S80 396821.67690961086 2181528.7283811183
S80 396823.64640961064 2181528.7283811183
S80  396823.6464096084 2181527.7435811204
S80 396823.64640961064 2181526.7587811197
S80 396824.63120960887 2181526.7587811197
S80 396825.61600960925 2181526.7587811197
S80 396825.61600960925  2181524.789181119
S80  396827.5856096101  2181524.789181119
S80  396827.5856096101   2181523.80448112
S80  396827.5856096101  2181522.819681119
S80 396829.55510960985  2181522.819681119
S80 396829.55510960985  2181521.834881119
S80 396829.55510960985 2181520.8500811183
S80  396830.5399096103 2181520.8500811183
S80  396831.5247096107 2181520.8500811183
S80 396831.52470960846  2181519.865281118
S80  396831.5247096107 2181518.8805811186
S80  396833.4942096105 2181518.8805811186
S80  396833.4942096105   2181516.91098112
S80 396835.46380960906   2181516.91098112
S80 396835.46380960906 2181515.9261811194
S80 396835.46380960906  2181514.941381119
S80  396836.4486096095  2181514.941381119
S80  396837.4334096099  2181514.941381119
S80  396837.4334096099 2181513.9566811197
S80  396837.4334096099 2181512.9718811195
S80  396839.4029096097 2181512.9718811195
S80 396839.40290961193 2181511.0022811186
S80 396841.37250960834 2181511.0022811186
S80 396841.37250961055 2181510.0174811203
S80 396841.37250961055  2181509.032781119
S80 396842.34921636875  2181509.032781119
S81  397218.7245986761 2182385.9826234696
S81  397033.0979317096  2182241.141933932
S81  397029.6892108771 2182243.6060915836
S81  397001.3417243047  2182228.606091586
S81  396948.4209056021 2182223.7965064296
S81 396932.99025408865 2182256.4930730304
S81  396864.2491291372  2182263.808709945
S81 396848.70683045476  2182287.877311702
S81  396841.3417243053  2182318.796506429
S81 396835.32822991756  2182324.369011312
S81  396806.1513094619  2182333.606091588
S81  396775.7374502823 2182358.3570798663
S81  396776.4073307002  2182375.262588657
S81  396786.3417243055  2182403.606091588
S81 396791.15130945976 2182420.0745945144
S81 396776.74332996784 2182461.1817833837
S81  396806.3417243032  2182488.606091585
S81  396815.4985239615  2182498.488897834
S81  396826.3417243031  2182503.606091585
S81  396831.1513094596 2182519.7071786956
S81 396821.15130945964  2182538.606091585
S81  396816.3038534058  2182548.877089632
S81  396806.3417243032  2182543.606091585
S81  396771.1513094598 2182538.7965064305
S81 396758.19625091593 2182531.9410720533
S81  396726.3240242073  2182557.879782406
S81  396721.2294219609 2182579.2677021334
S81 396702.40251981124   2182596.71157596
S81  396712.1043414415  2182615.046506431
S81  396721.3417243035 2182623.6060915845
S81    396726.15130946 2182628.7965064305
S81  396734.9602089231  2182636.958166975
S81  396725.3886423226  2182655.046506431
S81    396716.15130946  2182663.606091587
S81 396708.93723431346  2182671.391713852
S81 396700.68605351384 2182679.0367739243
S81   396760.415875907  2182635.793592533
S81  397139.3951759055 2182425.6271925336
S81  397218.7245986761 2182385.9826234696
S82  398156.8130588729 2183174.3106004014
S82 398156.46015181293 2183173.8599850647
S82  398153.3992518113 2183135.7630850645
S82 398159.24299114617 2183119.8498670035
S82  397218.7245986761 2182385.9826234696
S82  397139.3951759055 2182425.6271925336
S82   396760.415875907  2182635.793592533
S82 396700.68605351384 2182679.0367739243
S82  396635.0826297893  2182726.532289077
S82  396568.2280182915 2182774.9336188217
S82 396709.77320443274 2182967.7946261624
S82 397513.90276484936  2183184.126568591
S82  398156.8130588729 2183174.3106004014
S83 396712.10432290705  2182615.046473367
S83 396702.40252290707  2182596.711573367
S83 396721.22942290705  2182579.267673367
S83 396726.32402290707  2182557.879773367
S83 396758.19622290705 2182531.9410733674
S83 396771.15132290707  2182538.796473367
S83  396806.3417229071 2182543.6060733674
S83 396816.30382290704  2182548.877073367
S83 396821.15132290707 2182538.6060733674
S83 396831.15132290707  2182519.707173367
S83  396826.3417229071 2182503.6060733674
S83  396815.4985229071  2182498.488873367
S83  396806.3417229071 2182488.6060733674
S83  396776.7433229071 2182461.1817733673
S83 396791.15132290707 2182420.0745733674
S83  396786.3417229071 2182403.6060733674
S83 396776.40732290706 2182375.2625733675
S83  396775.7374229071  2182358.357073367
S83 396806.15132290707 2182333.6060733674
S83  396835.3282229071 2182324.3689733674
S83  396841.3417229071  2182318.796473367
S83  396848.7068229071 2182287.8772733673
S83 396864.24912290706 2182263.8086733674
S83 396932.99022290704  2182256.493073367
S83 396948.42092290707  2182223.796473367
S83  397001.3417229071 2182228.6060733674
S83 397029.68922290707 2182243.6060733674
S83 397033.09792290704 2182241.1419733674
S83 396880.76362290705 2182122.2785733673
S83 396880.76362290705 2182123.5353733674
S83 396880.76362290705  2182125.504873367
S83 396878.79412290704  2182125.504873367
S83 396878.79412290704 2182126.4896733672
S83 396878.79412290704 2182127.4744733674
S83  396876.8245229071 2182127.4744733674
S83  396876.8245229071  2182128.459273367
S83  396876.8245229071 2182129.4440733674
S83  396874.8550229071 2182129.4440733674
S83  396874.8550229071  2182131.413573367
S83  396874.8550229071  2182133.383173367
S83 396873.87022290705  2182133.383173367
S83  396872.8854229071  2182133.383173367
S83  396872.8854229071  2182134.367973367
S83  396872.8854229071  2182135.352673367
S83 396870.91582290706  2182135.352673367
S83 396870.91582290706  2182137.322273367
S83 396868.94632290705  2182137.322273367
S83 396868.94632290705 2182138.3070733673
S83 396868.94632290705  2182139.291873367
S83  396867.9615229071  2182139.291873367
S83 396866.97672290704  2182139.291873367
S83 396866.97672290704  2182141.261373367
S83 396866.97672290704  2182143.230973367
S83 396865.00722290704  2182143.230973367
S83 396865.00722290704 2182144.2157733673
S83 396865.00722290704 2182145.2004733672
S83  396863.0376229071 2182145.2004733672
S83  396863.0376229071 2182146.1852733674
S83  396863.0376229071  2182147.170073367
S83 396862.05282290705  2182147.170073367
S83  396861.0680229071  2182147.170073367
S83  396861.0680229071  2182149.139673367
S83  396861.0680229071 2182151.1091733673
S83 396859.09852290706 2182151.1091733673
S83 396859.09852290706  2182153.078773367
S83 396857.12892290705  2182153.078773367
S83 396857.12892290705 2182154.0635733674
S83 396857.12892290705 2182155.0482733673
S83  396856.1441229071 2182155.0482733673
S83 396855.15942290705 2182155.0482733673
S83 396855.15942290705 2182156.3613733673
S83 396855.15942290705 2182157.6743733673
S83 396855.15942290705 2182158.9874733672
S83 396853.18982290704 2182158.9874733672
S83 396853.18982290704 2182160.9569733674
S83  396851.2202229071 2182160.9569733674
S83  396851.2202229071  2182161.941773367
S83  396851.2202229071 2182162.9265733673
S83 396850.23552290705 2182162.9265733673
S83  396849.2507229071 2182162.9265733673
S83  396849.2507229071  2182163.911373367
S83  396849.2507229071 2182164.8960733674
S83 396847.28112290706 2182164.8960733674
S83 396847.28112290706 2182166.8656733674
S83 396847.28112290706 2182168.8352733674
S83 396845.31162290706 2182168.8352733674
S83 396845.31162290706  2182170.804773367
S83  396844.3268229071  2182170.804773367
S83 396843.34202290705  2182170.804773367
S83 396843.34202290705  2182171.789573367
S83 396843.34202290705 2182172.7743733674
S83 396841.37242290704 2182172.7743733674
S83 396841.37242290704  2182173.759173367
S83 396841.37242290704  2182174.743873367
S83  396839.4029229071  2182174.743873367
S83  396839.4029229071  2182176.713473367
S83  396839.4029229071  2182178.682973367
S83  396837.4333229071  2182178.682973367
S83  396837.4333229071 2182179.6677733674
S83  396837.4333229071  2182180.652573367
S83 396836.44862290705  2182180.652573367
S83 396835.46382290707  2182180.652573367
S83 396835.46382290707  2182182.622173367
S83 396833.49422290706  2182182.622173367
S83 396833.49422290706  2182184.591673367
S83 396833.49422290706  2182186.561273367
S83 396831.52472290705  2182186.561273367
S83 396831.52472290705 2182187.5460733674
S83 396831.52472290705 2182188.5307733673
S83  396830.5399229071 2182188.5307733673
S83 396829.55512290704 2182188.5307733673
S83 396829.55512290704  2182190.500373367
S83  396827.5855229071  2182190.500373367
S83  396827.5855229071 2182191.4851733674
S83  396827.5855229071  2182192.469973367
S83  396825.6160229071  2182192.469973367
S83  396825.6160229071 2182194.4394733673
S83  396825.6160229071 2182196.4090733672
S83 396824.63122290705 2182196.4090733672
S83 396823.64642290707 2182196.4090733672
S83 396823.64642290707 2182198.3785733674
S83 396821.67692290706 2182198.3785733674
S83 396821.67692290706  2182199.363373367
S83 396821.67692290706 2182200.3481733673
S83 396819.70732290705 2182200.3481733673
S83 396819.70732290705  2182201.332973367
S83 396819.70732290705 2182202.3177733673
S83 396817.73772290704 2182202.3177733673
S83 396817.73772290704 2182204.2872733674
S83 396817.73772290704 2182206.2568733674
S83 396816.75302290707 2182206.2568733674
S83  396815.7682229071 2182206.2568733674
S83  396815.7682229071  2182207.241673367
S83  396815.7682229071  2182208.226373367
S83  396813.7986229071  2182208.226373367
S83  396813.7986229071  2182209.211173367
S83  396813.7986229071 2182210.1959733674
S83 396812.81382290705 2182210.1959733674
S83  396811.8291229071 2182210.1959733674
S83  396811.8291229071 2182212.1655733674
S83 396809.85952290706 2182212.1655733674
S83 396809.85952290706  2182214.135073367
S83 396809.85952290706 2182216.1046733675
S83 396807.88992290705 2182216.1046733675
S83 396807.88992290705  2182217.089473367
S83 396807.88992290705  2182218.074173367
S83  396806.9052229071  2182218.074173367
S83 396805.92042290705  2182218.074173367
S83 396805.92042290705 2182219.0589733673
S83 396805.92042290705  2182220.043773367
S83  396803.9508229071  2182220.043773367
S83  396803.9508229071  2182222.013373367
S83  396803.9508229071  2182223.982873367
S83  396801.9813229071  2182223.982873367
S83  396801.9813229071 2182224.9676733674
S83  396801.9813229071  2182225.952473367
S83  396800.0117229071  2182225.952473367
S83  396800.0117229071  2182227.921973367
S83 396799.02692290704  2182227.921973367
S83 396798.04212290706  2182227.921973367
S83 396798.04212290706 2182228.9067733674
S83 396798.04212290706  2182229.891573367
S83 396796.07262290706  2182229.891573367
S83 396796.07262290706 2182231.2045733673
S83 396796.07262290706  2182232.517673367
S83 396796.07262290706 2182233.8306733673
S83 396794.10302290705 2182233.8306733673
S83 396794.10302290705  2182235.800273367
S83 396793.11822290707  2182235.800273367
S83 396792.13352290704  2182235.800273367
S83 396792.13352290704 2182236.7850733674
S83 396792.13352290704 2182237.7697733673
S83  396790.1639229071 2182237.7697733673
S83  396790.1639229071 2182239.7393733673
S83  396788.1943229071 2182239.7393733673
S83  396788.1943229071 2182241.0523733674
S83  396788.1943229071 2182242.3654733673
S83  396788.1943229071 2182243.6784733674
S83 396787.20962290704 2182243.6784733674
S83 396786.22482290707 2182243.6784733674
S83 396786.22482290707 2182245.6480733673
S83 396784.25522290706 2182245.6480733673
S83 396784.25522290706  2182246.632873367
S83 396784.25522290706 2182247.6175733674
S83 396782.28572290705 2182247.6175733674
S83 396782.28572290705 2182249.5871733674
S83 396782.28572290705 2182251.5567733673
S83 396780.31612290704 2182251.5567733673
S83 396780.31612290704 2182252.5414733673
S83 396780.31612290704 2182253.5262733675
S83 396779.33132290706 2182253.5262733675
S83  396778.3465229071 2182253.5262733675
S83  396778.3465229071  2182254.511073367
S83  396778.3465229071 2182255.4958733674
S83  396776.3770229071 2182255.4958733674
S83  396776.3770229071  2182257.465373367
S83 396774.40742290707  2182257.465373367
S83 396774.40742290707  2182259.434973367
S83 396774.40742290707 2182261.4045733674
S83  396773.4226229071 2182261.4045733674
S83 396772.43792290706 2182261.4045733674
S83 396772.43792290706 2182262.3892733674
S83 396772.43792290706  2182263.374073367
S83 396770.46832290705  2182263.374073367
S83 396770.46832290705 2182264.3588733673
S83 396770.46832290705  2182265.343673367
S83  396769.4835229071  2182265.343673367
S83 396768.49872290704  2182265.343673367
S83 396768.49872290704 2182266.3284733673
S83 396768.49872290704  2182267.313173367
S83  396766.5292229071  2182267.313173367
S83  396766.5292229071  2182269.282773367
S83  396766.5292229071  2182271.252373367
S83  396764.5596229071  2182271.252373367
S83  396764.5596229071  2182273.221873367
S83  396762.5901229071  2182273.221873367
S83  396762.5901229071 2182274.2066733674
S83  396762.5901229071  2182275.191473367
S83 396761.60532290704  2182275.191473367
S83 396760.62052290706  2182275.191473367
S83 396760.62052290706 2182276.1762733674
S83 396760.62052290706 2182277.1609733673
S83 396758.65092290705 2182277.1609733673
S83 396758.65092290705 2182279.1305733672
S83 396758.65092290705  2182281.100173367
S83 396756.68142290704  2182281.100173367
S83 396756.68142290704  2182282.084873367
S83 396756.68142290704 2182283.0696733673
S83 396755.69662290707 2182283.0696733673
S83  396754.7118229071 2182283.0696733673
S83  396754.7118229071 2182285.0392733673
S83  396752.7423229071 2182285.0392733673
S83  396752.7423229071 2182286.3522733673
S83  396752.7423229071 2182287.6653733673
S83  396752.7423229071 2182288.9783733673
S83  396750.7727229071 2182288.9783733673
S83  396750.7727229071 2182290.9479733673
S83 396749.78792290704 2182290.9479733673
S83 396748.80312290706 2182290.9479733673
S83 396748.80312290706  2182291.932673367
S83 396748.80312290706 2182292.9174733674
S83 396746.83362290706 2182292.9174733674
S83 396746.83362290706  2182293.902273367
S83 396746.83362290706 2182294.8870733674
S83 396744.86402290704 2182294.8870733674
S83 396744.86402290704  2182296.856573367
S83 396744.86402290704 2182298.8261733674
S83 396742.89452290704 2182298.8261733674
S83 396742.89452290704  2182299.810973367
S83 396742.89452290704 2182300.7957733674
S83 396741.90972290706 2182300.7957733674
S83  396740.9249229071 2182300.7957733674
S83  396740.9249229071  2182302.765273367
S83  396738.9553229071  2182302.765273367
S83  396738.9553229071 2182303.7500733673
S83  396738.9553229071  2182304.734873367
S83 396736.98582290707  2182304.734873367
S83 396736.98582290707  2182306.047873367
S83 396736.98582290707 2182307.3609733675
S83 396736.98582290707  2182308.673973367
S83 396735.01622290706  2182308.673973367
S83 396735.01622290706  2182310.643573367
S83  396734.0314229071  2182310.643573367
S83 396733.04672290705  2182310.643573367
S83 396733.04672290705 2182311.6282733674
S83 396733.04672290705  2182312.613073367
S83 396731.07712290704  2182312.613073367
S83 396731.07712290704  2182314.582673367
S83 396730.09232290706  2182314.582673367
S83  396729.1075229071  2182314.582673367
S83  396729.1075229071  2182315.895673367
S83  396729.1075229071 2182317.2086733673
S83  396729.1075229071  2182318.521773367
S83  396727.1380229071  2182318.521773367
S83  396727.1380229071 2182320.4912733673
S83 396725.16842290707 2182320.4912733673
S83 396725.16842290707  2182321.476073367
S83 396725.16842290707 2182322.4608733673
S83  396724.1836229071 2182322.4608733673
S83 396723.19892290706 2182322.4608733673
S83 396723.19892290706  2182324.430473367
S83 396723.19892290706 2182326.3999733673
S83 396721.22932290705 2182326.3999733673
S83 396721.22932290705  2182327.384773367
S83 396721.22932290705 2182328.3695733673
S83 396719.25972290704 2182328.3695733673
S83 396719.25972290704 2182330.3390733674
S83 396718.27502290707 2182330.3390733674
S83  396717.2902229071 2182330.3390733674
S83  396717.2902229071  2182331.323873367
S83  396717.2902229071 2182332.3086733674
S83  396715.3206229071 2182332.3086733674
S83  396715.3206229071 2182334.2782733673
S83  396715.3206229071 2182336.2477733674
S83  396713.3511229071 2182336.2477733674
S83  396713.3511229071  2182337.232573367
S83  396713.3511229071 2182338.2173733674
S83 396711.38152290706 2182338.2173733674
S83 396711.38152290706  2182339.202173367
S83 396711.38152290706  2182340.186873367
S83  396710.3967229071  2182340.186873367
S83 396709.41192290705  2182340.186873367
S83 396709.41192290705 2182341.1716733673
S83 396709.41192290705  2182342.156473367
S83 396707.44242290704  2182342.156473367
S83 396707.44242290704 2182344.1260733674
S83 396707.44242290704  2182346.095573367
S83  396705.4728229071  2182346.095573367
S83  396705.4728229071  2182348.065173367
S83 396704.48802290705  2182348.065173367
S83  396703.5033229071  2182348.065173367
S83  396703.5033229071 2182349.0499733672
S83  396703.5033229071  2182350.034673367
S83  396701.5337229071  2182350.034673367
S83  396701.5337229071 2182351.0194733674
S83  396701.5337229071  2182352.004273367
S83 396699.56422290707  2182352.004273367
S83 396699.56422290707  2182353.973873367
S83 396699.56422290707  2182355.943373367
S83 396697.59462290705  2182355.943373367
S83 396697.59462290705 2182356.9281733674
S83 396697.59462290705  2182357.912973367
S83  396696.6098229071  2182357.912973367
S83 396695.62502290704  2182357.912973367
S83 396695.62502290704 2182359.8824733673
S83 396693.65552290704 2182359.8824733673
S83 396693.65552290704  2182360.867273367
S83 396693.65552290704  2182361.852073367
S83  396691.6859229071  2182361.852073367
S83  396691.6859229071 2182362.8368733674
S83  396691.6859229071  2182363.821673367
S83 396690.70112290705  2182363.821673367
S83  396689.7164229071  2182363.821673367
S83  396689.7164229071 2182365.7911733673
S83 396687.74682290707 2182365.7911733673
S83 396687.74682290707  2182366.775973367
S83 396687.74682290707 2182367.7607733672
S83 396685.77722290705 2182367.7607733672
S83 396685.77722290705 2182368.7455733675
S83 396685.77722290705 2182369.7302733674
S83  396684.7925229071 2182369.7302733674
S83 396683.80772290705 2182369.7302733674
S83 396683.80772290705 2182371.6998733673
S83 396681.83812290704 2182371.6998733673
S83 396681.83812290704  2182372.684673367
S83 396681.83812290704 2182373.6694733673
S83 396680.85332290706 2182373.6694733673
S83  396679.8686229071 2182373.6694733673
S83  396679.8686229071  2182374.654173367
S83  396679.8686229071 2182375.6389733674
S83  396677.8990229071 2182375.6389733674
S83  396677.8990229071 2182377.6085733674
S83  396677.8990229071  2182379.578073367
S83 396675.92942290707  2182379.578073367
S83 396675.92942290707  2182380.562873367
S83 396675.92942290707 2182381.5476733674
S83 396673.95992290706 2182381.5476733674
S83 396673.95992290706 2182383.5172733674
S83  396672.9751229071 2182383.5172733674
S83 396671.99032290705 2182383.5172733674
S83 396671.99032290705 2182384.5019733673
S83 396671.99032290705  2182385.486773367
S83 396670.02082290704  2182385.486773367
S83 396670.02082290704 2182386.4715733672
S83 396670.02082290704 2182387.4563733675
S83  396668.0512229071 2182387.4563733675
S83  396668.0512229071  2182389.425873367
S83 396667.06642290705  2182389.425873367
S83  396666.0816229071  2182389.425873367
S83  396666.0816229071 2182390.4106733673
S83  396666.0816229071  2182391.395473367
S83 396664.11212290707  2182391.395473367
S83 396664.11212290707 2182392.3802733673
S83 396664.11212290707  2182393.365073367
S83 396662.14252290706  2182393.365073367
S83 396662.14252290706  2182395.334573367
S83 396660.17302290705  2182395.334573367
S83 396660.17302290705 2182396.3193733674
S83 396660.17302290705  2182397.304173367
S83  396659.1882229071  2182397.304173367
S83 396658.20342290704  2182397.304173367
S83 396658.20342290704 2182398.2889733673
S83 396658.20342290704  2182399.273673367
S83  396656.2338229071  2182399.273673367
S83  396656.2338229071  2182401.243273367
S83  396656.2338229071  2182403.212873367
S83  396654.2643229071  2182403.212873367
S83  396654.2643229071 2182405.1823733672
S83 396653.27952290705 2182405.1823733672
S83 396652.29472290707 2182405.1823733672
S83 396652.29472290707 2182406.1671733675
S83 396652.29472290707  2182407.151973367
S83 396650.32522290706  2182407.151973367
S83 396650.32522290706 2182408.1367733674
S83 396650.32522290706 2182409.1214733673
S83 396648.35562290705 2182409.1214733673
S83 396648.35562290705 2182411.0910733673
S83  396647.3708229071 2182411.0910733673
S83 396646.38602290704 2182411.0910733673
S83 396646.38602290704  2182412.075873367
S83 396646.38602290704  2182413.060673367
S83  396644.4165229071  2182413.060673367
S83  396644.4165229071  2182414.045373367
S83  396644.4165229071 2182415.0301733674
S83  396642.4469229071 2182415.0301733674
S83  396642.4469229071 2182416.9997733673
S83 396641.46212290705 2182416.9997733673
S83  396640.4774229071 2182416.9997733673
S83  396640.4774229071  2182417.984573367
S83  396640.4774229071 2182418.9692733674
S83 396638.50782290706 2182418.9692733674
S83 396638.50782290706  2182419.954073367
S83 396638.50782290706 2182420.9388733674
S83 396636.53822290705 2182420.9388733674
S83 396636.53822290705 2182422.9084733673
S83  396635.5535229071 2182422.9084733673
S83 396634.56872290705 2182422.9084733673
S83 396634.56872290705 2182423.8931733673
S83 396634.56872290705 2182424.8779733675
S83  396632.5991229071 2182424.8779733675
S83  396632.5991229071 2182426.1910733674
S83  396632.5991229071 2182427.5040733675
S83  396632.5991229071  2182428.817073367
S83  396630.6296229071  2182428.817073367
S83  396630.6296229071  2182430.786673367
S83 396629.64482290705  2182430.786673367
S83  396628.6600229071  2182430.786673367
S83  396628.6600229071  2182431.771473367
S83  396628.6600229071 2182432.7562733674
S83 396626.69042290706 2182432.7562733674
S83 396626.69042290706  2182434.725773367
S83 396624.72092290706  2182434.725773367
S83 396624.72092290706 2182435.7105733673
S83 396624.72092290706  2182436.695373367
S83 396622.75132290705  2182436.695373367
S83 396622.75132290705 2182437.6801733673
S83 396622.75132290705  2182438.664873367
S83 396621.76652290707  2182438.664873367
S83 396620.78182290704  2182438.664873367
S83 396620.78182290704  2182440.634473367
S83  396618.8122229071  2182440.634473367
S83  396618.8122229071 2182441.6192733673
S83  396618.8122229071  2182442.604073367
S83  396616.8426229071  2182442.604073367
S83  396616.8426229071 2182443.5887733675
S83  396616.8426229071  2182444.573573367
S83 396615.85792290705  2182444.573573367
S83 396614.87312290707  2182444.573573367
S83 396614.87312290707  2182446.543173367
S83 396612.90352290706  2182446.543173367
S83 396612.90352290706 2182447.5279733674
S83 396612.90352290706 2182448.5126733673
S83 396610.93402290705 2182448.5126733673
S83 396610.93402290705 2182450.4822733672
S83 396610.93402290705 2182452.4517733674
S83  396609.9492229071 2182452.4517733674
S83 396608.96442290704 2182452.4517733674
S83 396608.96442290704  2182453.436573367
S83 396608.96442290704 2182454.4213733673
S83  396606.9948229071 2182454.4213733673
S83  396606.9948229071  2182455.406173367
S83  396606.9948229071 2182456.3909733673
S83  396605.0253229071 2182456.3909733673
S83  396605.0253229071 2182458.3604733674
S83 396603.05572290707 2182458.3604733674
S83 396603.05572290707  2182459.345273367
S83 396603.05572290707 2182460.3300733673
S83  396602.0709229071 2182460.3300733673
S83 396601.08622290706 2182460.3300733673
S83 396601.08622290706 2182462.2995733675
S83 396599.11662290705 2182462.2995733675
S83 396599.11662290705  2182463.284373367
S83 396599.11662290705 2182464.2691733674
S83  396598.1318229071 2182464.2691733674
S83 396597.14702290704 2182464.2691733674
S83 396597.14702290704  2182465.253973367
S83 396597.14702290704 2182466.2387733674
S83  396595.1775229071 2182466.2387733674
S83  396595.1775229071 2182467.2234733673
S83  396595.1775229071  2182468.208273367
S83  396593.2079229071  2182468.208273367
S83  396593.2079229071 2182470.1778733674
S83 396592.22312290705 2182470.1778733674
S83  396591.2384229071 2182470.1778733674
S83  396591.2384229071  2182471.162673367
S83  396591.2384229071  2182472.147373367
S83 396589.26882290706  2182472.147373367
S83 396589.26882290706  2182474.116973367
S83 396589.26882290706  2182476.086573367
S83 396587.29922290705  2182476.086573367
S83 396587.29922290705 2182477.0712733674
S83 396587.29922290705  2182478.056073367
S83 396585.32972290704  2182478.056073367
S83 396585.32972290704  2182480.025673367
S83 396584.34492290707  2182480.025673367
S83  396583.3601229071  2182480.025673367
S83  396583.3601229071 2182481.0104733673
S83  396583.3601229071  2182481.995173367
S83  396581.3906229071  2182481.995173367
S83  396581.3906229071 2182482.9799733674
S83  396581.3906229071  2182483.964773367
S83  396579.4210229071  2182483.964773367
S83  396579.4210229071  2182485.934373367
S83 396578.43622290704  2182485.934373367
S83 396577.45142290706  2182485.934373367
S83 396577.45142290706  2182486.919073367
S83 396577.45142290706 2182487.9038733672
S83 396575.48192290706 2182487.9038733672
S83 396575.48192290706 2182488.8886733674
S83 396575.48192290706  2182489.873473367
S83  396574.1688229071  2182489.873473367
S83 396572.85582290706  2182489.873473367
S83 396571.54282290704  2182489.873473367
S83 396571.54282290704 2182491.8429733673
S83  396569.5732229071 2182491.8429733673
S83  396569.5732229071  2182492.827773367
S83  396569.5732229071 2182493.8125733673
S83  396567.6036229071 2182493.8125733673
S83  396567.6036229071  2182495.782173367
S83 396565.63412290707  2182495.782173367
S83 396565.63412290707  2182496.766873367
S83 396565.63412290707 2182497.7516733673
S83 396564.32112290704 2182497.7516733673
S83  396563.0080229071 2182497.7516733673
S83 396561.69502290705 2182497.7516733673
S83 396561.69502290705  2182498.736473367
S83 396561.69502290705 2182499.7212733673
S83 396559.72542290704 2182499.7212733673
S83 396559.72542290704  2182500.706073367
S83 396559.72542290704 2182501.6907733674
S83 396558.74062290706 2182501.6907733674
S83  396557.7559229071 2182501.6907733674
S83  396557.7559229071 2182503.6603733674
S83  396555.7863229071 2182503.6603733674
S83  396555.7863229071  2182504.645173367
S83  396555.7863229071 2182505.6299733673
S83 396554.47332290706 2182505.6299733673
S83  396553.1602229071 2182505.6299733673
S83 396551.84722290706 2182505.6299733673
S83 396551.84722290706 2182506.6146733672
S83 396551.84722290706 2182507.5994733674
S83 396549.87762290705 2182507.5994733674
S83 396549.87762290705 2182509.5690733674
S83 396547.90812290704 2182509.5690733674
S83 396547.90812290704  2182510.553873367
S83 396547.90812290704  2182511.538573367
S83 396546.92332290707  2182511.538573367
S83  396545.9385229071  2182511.538573367
S83  396545.9385229071 2182512.5233733673
S83  396545.9385229071  2182513.508173367
S83  396543.9689229071  2182513.508173367
S83  396541.9994229071  2182513.508173367
S83  396541.9994229071 2182515.4777733674
S83 396541.01462290704 2182515.4777733674
S83 396540.02982290706 2182515.4777733674
S83 396540.02982290706 2182516.4624733673
S83 396540.02982290706  2182517.447273367
S83 396538.06032290705  2182517.447273367
S83 396538.06032290705 2182518.4320733673
S83 396538.06032290705  2182519.416873367
S83 396536.09072290704  2182519.416873367
S83 396536.09072290704  2182521.386373367
S83  396534.7777229071  2182521.386373367
S83 396533.46462290705  2182521.386373367
S83  396532.1516229071  2182521.386373367
S83  396532.1516229071 2182522.3711733674
S83  396532.1516229071  2182523.355973367
S83  396530.1820229071  2182523.355973367
S83  396530.1820229071  2182525.325573367
S83 396528.21252290707  2182525.325573367
S83 396528.21252290707 2182526.3102733674
S83 396528.21252290707  2182527.295073367
S83  396527.2277229071  2182527.295073367
S83 396526.24292290705  2182527.295073367
S83 396526.24292290705 2182528.2798733674
S83 396526.24292290705  2182529.264673367
S83 396524.27332290704  2182529.264673367
S83 396522.30382290704  2182529.264673367
S83 396522.30382290704 2182530.2494733674
S83 396522.30382290704 2182531.2341733673
S83  396520.3342229071 2182531.2341733673
S83  396520.3342229071  2182533.203773367
S83 396519.34942290705  2182533.203773367
S83  396518.3647229071  2182533.203773367
S83  396518.3647229071 2182534.1885733674
S83  396518.3647229071  2182535.173373367
S83 396516.39512290707  2182535.173373367
S83 396516.39512290707 2182537.1428733673
S83 396515.08212290704 2182537.1428733673
S83  396513.7690229071 2182537.1428733673
S83 396512.45602290705 2182537.1428733673
S83 396512.45602290705  2182538.127673367
S83 396512.45602290705 2182539.1124733672
S83 396510.48642290704 2182539.1124733672
S83 396510.48642290704 2182541.0819733674
S83 396509.50162290706 2182541.0819733674
S83  396508.5169229071 2182541.0819733674
S83  396508.5169229071  2182542.066773367
S83  396508.5169229071 2182543.0515733673
S83  396506.5473229071 2182543.0515733673
S83  396506.5473229071 2182545.0211733673
S83 396505.23432290705 2182545.0211733673
S83  396503.9212229071 2182545.0211733673
S83 396502.60822290706 2182545.0211733673
S83 396502.60822290706  2182546.005873367
S83 396502.60822290706 2182546.9906733674
S83 396500.63862290705 2182546.9906733674
S83 396500.63862290705 2182548.9602733674
S83 396498.66912290704 2182548.9602733674
S83 396498.66912290704  2182549.945073367
S83 396498.66912290704  2182550.929773367
S83  396496.6995229071  2182550.929773367
S83  396496.6995229071  2182551.914573367
S83  396496.6995229071 2182552.8993733674
S83 396495.38652290707 2182552.8993733674
S83 396494.07342290704 2182552.8993733674
S83  396492.7604229071 2182552.8993733674
S83  396492.7604229071 2182554.8689733674
S83 396490.79082290706 2182554.8689733674
S83 396490.79082290706 2182555.8536733673
S83 396490.79082290706  2182556.838473367
S83  396489.8060229071  2182556.838473367
S83 396488.82132290705  2182556.838473367
S83 396488.82132290705 2182557.8232733672
S83 396488.82132290705 2182558.8080733675
S83 396486.85172290704 2182558.8080733675
S83 396486.85172290704  2182560.777573367
S83  396484.8821229071  2182560.777573367
S83  396482.9126229071  2182560.777573367
S83  396482.9126229071 2182561.7623733673
S83  396482.9126229071  2182562.747173367
S83 396481.92782290705  2182562.747173367
S83  396480.9430229071  2182562.747173367
S83  396480.9430229071 2182563.7319733673
S83  396480.9430229071  2182564.716773367
S83 396478.97352290706  2182564.716773367
S83 396478.97352290706  2182566.686273367
S83 396477.00392290705  2182566.686273367
S83 396477.00392290705 2182567.6710733674
S83 396477.00392290705  2182568.655873367
S83  396475.6909229071  2182568.655873367
S83 396474.37782290706  2182568.655873367
S83 396473.06482290704  2182568.655873367
S83 396473.06482290704  2182570.625373367
S83  396471.0952229071  2182570.625373367
S83  396471.0952229071 2182571.6101733674
S83  396471.0952229071  2182572.594973367
S83 396470.11042290705  2182572.594973367
S83  396469.1257229071  2182572.594973367
S83  396469.1257229071 2182573.5797733674
S83  396469.1257229071  2182574.564573367
S83 396467.15612290706  2182574.564573367
S83 396467.15612290706  2182575.549273367
S83 396467.15612290706 2182576.5340733672
S83  396466.1713229071 2182576.5340733672
S83 396465.18652290705 2182576.5340733672
S83 396465.18652290705  2182578.503673367
S83 396463.21702290705  2182578.503673367
S83 396461.24742290704  2182578.503673367
S83 396461.24742290704 2182579.4884733674
S83 396461.24742290704 2182580.4731733673
S83  396459.2779229071 2182580.4731733673
S83  396459.2779229071 2182582.4427733673
S83 396458.29312290705 2182582.4427733673
S83  396457.3083229071 2182582.4427733673
S83  396457.3083229071  2182583.427573367
S83  396457.3083229071  2182584.412373367
S83 396455.33872290706  2182584.412373367
S83 396455.33872290706  2182585.397073367
S83 396455.33872290706 2182586.3818733674
S83 396454.02572290704 2182586.3818733674
S83  396452.7127229071 2182586.3818733674
S83 396451.39962290705 2182586.3818733674
S83 396451.39962290705  2182587.366673367
S83 396451.39962290705 2182588.3514733673
S83 396449.43012290704 2182588.3514733673
S83 396449.43012290704 2182590.3209733674
S83  396447.4605229071 2182590.3209733674
S83  396447.4605229071  2182591.305773367
S83  396447.4605229071 2182592.2905733674
S83  396445.4909229071 2182592.2905733674
S83  396445.4909229071  2182594.260073367
S83 396444.17792290705  2182594.260073367
S83  396442.8649229071  2182594.260073367
S83 396441.55182290706  2182594.260073367
S83 396441.55182290706 2182595.2448733672
S83 396441.55182290706 2182596.2296733675
S83 396439.58232290705 2182596.2296733675
S83 396439.58232290705  2182597.214473367
S83 396439.58232290705 2182598.1992733674
S83  396438.5975229071 2182598.1992733674
S83 396438.51862290705 2182598.1992733674
S83 396496.92092290707  2182677.774773367
S83 396568.22802290705  2182774.933573367
S83 396635.08262290707  2182726.532273367
S83  396700.6860229071 2182679.0367733673
S83  396708.9372229071  2182671.391673367
S83 396716.15132290707 2182663.6060733674
S83 396725.38862290705  2182655.046473367
S83  396734.9602229071  2182636.958173367
S83 396726.15132290707  2182628.796473367
S83  396721.3417229071 2182623.6060733674
S83 396712.10432290705  2182615.046473367
S84  396201.2655824719   2182255.81075958
S84  396201.2655824719 2182255.4958595806
S84 396202.08478247194 2182255.4958595806
S84  396203.2350824719 2182255.4958595806
S84 396205.20468247193 2182255.4958595806
S84 396205.20468247193 2182254.5110595804
S84 396205.20468247193 2182254.2964595803
S84 396205.20468247193 2182253.5262595806
S84 396206.18948247196 2182253.5262595806
S84 396207.17418247194 2182253.5262595806
S84 396207.17418247194 2182252.5414595804
S84 396207.17418247194 2182251.5567595805
S84  396208.4872824719 2182251.5567595805
S84 396209.80028247193 2182251.5567595805
S84 396211.11338247196 2182251.5567595805
S84 396211.11338247196 2182249.5871595806
S84  396213.0828824719 2182249.5871595806
S84  396215.0524824719 2182249.5871595806
S84  396215.0524824719 2182248.6023595803
S84  396215.0524824719 2182247.6175595806
S84 396216.36548247194 2182247.6175595806
S84  396217.6785824719 2182247.6175595806
S84 396218.99158247194 2182247.6175595806
S84 396218.99158247194 2182246.6328595807
S84 396218.99158247194 2182245.6480595805
S84 396220.96118247195 2182245.6480595805
S84 396222.93068247195 2182245.6480595805
S84 396222.93068247195 2182243.6784595805
S84 396223.91548247193 2182243.6784595805
S84  396224.9002824719 2182243.6784595805
S84  396224.9002824719 2182242.6937595806
S84  396224.9002824719 2182241.7089595804
S84  396226.8697824719 2182241.7089595804
S84  396228.8393824719 2182241.7089595804
S84  396228.8393824719 2182240.7241595807
S84  396228.8393824719 2182239.7393595804
S84 396230.15238247195 2182239.7393595804
S84  396231.4654824719 2182239.7393595804
S84 396232.77848247194 2182239.7393595804
S84 396232.77848247194 2182237.7698595803
S84 396234.74808247195 2182237.7698595803
S84 396236.71758247196 2182237.7698595803
S84 396236.71758247196 2182236.7850595806
S84 396236.71758247196 2182235.8002595804
S84 396238.03068247193 2182235.8002595804
S84 396239.34368247195 2182235.8002595804
S84  396240.6567824719 2182235.8002595804
S84  396240.6567824719 2182233.8306595804
S84 396242.62628247193 2182233.8306595804
S84 396242.62628247193 2182232.8459595805
S84 396242.62628247193 2182231.8611595803
S84 396243.93938247196 2182231.8611595803
S84  396245.2523824719 2182231.8611595803
S84 396246.56538247195 2182231.8611595803
S84 396246.56538247195 2182230.8763595806
S84 396246.56538247195 2182229.8915595803
S84  396247.8784824719 2182229.8915595803
S84 396249.19148247194 2182229.8915595803
S84  396250.5045824719 2182229.8915595803
S84  396250.5045824719 2182228.9067595806
S84  396250.5045824719 2182227.9220595807
S84  396252.4740824719 2182227.9220595807
S84  396252.4740824719 2182225.9524595803
S84 396253.78718247195 2182225.9524595803
S84  396255.1001824719 2182225.9524595803
S84 396256.41318247194 2182225.9524595803
S84 396256.41318247194 2182224.9676595805
S84 396256.41318247194 2182223.9828595803
S84 396258.38278247195 2182223.9828595803
S84 396258.38278247195 2182222.0133595807
S84 396260.35238247196 2182222.0133595807
S84 396260.35238247196 2182221.0285595804
S84 396260.35238247196 2182220.0437595802
S84 396261.33708247193 2182220.0437595802
S84  396262.3218824719 2182220.0437595802
S84  396262.3218824719 2182219.0589595805
S84  396262.3218824719 2182218.0742595806
S84  396264.2914824719 2182218.0742595806
S84  396264.2914824719 2182217.0894595804
S84  396264.2914824719 2182216.1046595806
S84 396265.60448247194 2182216.1046595806
S84  396266.9175824719 2182216.1046595806
S84 396268.23058247194 2182216.1046595806
S84 396268.23058247194 2182214.1350595807
S84 396270.20018247195 2182214.1350595807
S84 396270.20018247195 2182213.1503595803
S84 396270.20018247195 2182212.1655595805
S84 396272.16968247195 2182212.1655595805
S84 396272.16968247195 2182210.1959595806
S84  396274.1392824719 2182210.1959595806
S84  396274.1392824719 2182209.2111595804
S84  396274.1392824719 2182208.2264595805
S84 396275.45228247193 2182208.2264595805
S84 396276.76538247196 2182208.2264595805
S84  396278.0783824719 2182208.2264595805
S84  396278.0783824719 2182207.2416595803
S84  396278.0783824719 2182206.2568595805
S84 396280.04798247194 2182206.2568595805
S84 396280.04798247194 2182204.2872595806
S84  396281.0326824719 2182204.2872595806
S84 396282.01748247194 2182204.2872595806
S84 396282.01748247194 2182203.3025595807
S84 396282.01748247194 2182202.3177595804
S84 396283.98708247195 2182202.3177595804
S84 396283.98708247195 2182201.3329595802
S84 396283.98708247195 2182200.3481595805
S84 396285.95658247196 2182200.3481595805
S84 396285.95658247196 2182199.3633595803
S84 396285.95658247196 2182198.3786595804
S84 396287.26968247193 2182198.3786595804
S84 396288.58268247196 2182198.3786595804
S84  396289.8957824719 2182198.3786595804
S84  396289.8957824719 2182196.4090595804
S84 396291.86528247193 2182196.4090595804
S84 396291.86528247193 2182195.4242595807
S84 396291.86528247193 2182194.4394595805
S84  396292.8500824719 2182194.4394595805
S84 396293.83488247194 2182194.4394595805
S84 396293.83488247194 2182192.4699595803
S84 396295.80438247195 2182192.4699595803
S84 396295.80438247195 2182191.4851595806
S84 396295.80438247195 2182190.5003595804
S84  396297.1174824719 2182190.5003595804
S84 396298.43048247194 2182190.5003595804
S84  396299.7434824719 2182190.5003595804
S84  396299.7434824719 2182188.5308595803
S84  396301.7130824719 2182188.5308595803
S84  396301.7130824719 2182187.5460595805
S84  396301.7130824719 2182186.5612595803
S84 396303.68268247193 2182186.5612595803
S84 396303.68268247193 2182184.5916595804
S84 396304.66738247196 2182184.5916595804
S84 396305.65218247194 2182184.5916595804
S84 396305.65218247194 2182183.6069595804
S84 396305.65218247194 2182182.6221595802
S84 396307.62178247195 2182182.6221595802
S84 396309.59128247196 2182182.6221595802
S84 396309.59128247196 2182180.6525595803
S84  396311.5608824719 2182180.6525595803
S84  396311.5608824719 2182179.6677595805
S84  396311.5608824719 2182178.6830595806
S84 396312.54568247194 2182178.6830595806
S84  396313.5304824719 2182178.6830595806
S84  396313.5304824719 2182176.7134595807
S84  396315.4999824719 2182176.7134595807
S84  396315.4999824719 2182175.7286595805
S84  396315.4999824719 2182174.7438595803
S84 396317.46958247194 2182174.7438595803
S84 396317.46958247194 2182173.7591595803
S84 396317.46958247194 2182172.7743595806
S84 396318.78258247196 2182172.7743595806
S84 396320.09568247193 2182172.7743595806
S84 396321.40868247196 2182172.7743595806
S84 396321.40868247196 2182171.7895595804
S84 396321.40868247196 2182170.8047595806
S84  396323.3782824719 2182170.8047595806
S84  396323.3782824719 2182168.8352595805
S84  396325.3477824719 2182168.8352595805
S84  396325.3477824719 2182167.8504595803
S84  396325.3477824719 2182166.8656595806
S84 396326.33258247195 2182166.8656595806
S84  396327.3173824719 2182166.8656595806
S84  396327.3173824719 2182164.8960595806
S84 396329.28688247193 2182164.8960595806
S84 396331.25648247194 2182164.8960595806
S84 396331.25648247194 2182163.9113595802
S84 396331.25648247194 2182162.9265595805
S84  396332.2412824719 2182162.9265595805
S84 396333.22608247196 2182162.9265595805
S84 396333.22608247196 2182161.9417595803
S84 396333.22608247196 2182160.9569595805
S84 396335.19558247196 2182160.9569595805
S84 396335.19558247196 2182158.9874595804
S84  396337.1651824719 2182158.9874595804
S84  396337.1651824719 2182158.0026595807
S84  396337.1651824719 2182157.0178595805
S84 396338.14998247195 2182157.0178595805
S84  396339.1346824719 2182157.0178595805
S84  396339.1346824719 2182156.0330595803
S84  396339.1346824719 2182155.0482595805
S84 396341.10428247193 2182155.0482595805
S84 396341.10428247193 2182154.0635595806
S84 396341.10428247193 2182153.0787595804
S84 396343.07388247194 2182153.0787595804
S84 396343.07388247194 2182151.1091595804
S84  396344.0585824719 2182151.1091595804
S84 396345.04338247195 2182151.1091595804
S84 396345.04338247195   2182150.12435958
S84 396345.04338247195 2182149.1396595803
S84 396347.01298247196 2182149.1396595803
S84 396347.01298247196 2182147.1700595804
S84  396348.9824824719 2182147.1700595804
S84  396348.9824824719 2182146.1852595806
S84  396348.9824824719 2182145.2004595804
S84 396349.96728247195 2182145.2004595804
S84  396350.9520824719 2182145.2004595804
S84  396350.9520824719 2182144.2157595805
S84  396350.9520824719 2182143.2309595803
S84 396352.92168247193 2182143.2309595803
S84 396352.92168247193 2182142.2461595805
S84 396352.92168247193 2182141.2613595803
S84 396354.89118247194 2182141.2613595803
S84 396354.89118247194 2182139.2918595807
S84 396356.86078247195 2182139.2918595807
S84 396356.86078247195 2182138.3070595805
S84 396356.86078247195 2182137.3222595803
S84  396357.8455824719 2182137.3222595803
S84 396358.83028247196 2182137.3222595803
S84 396358.83028247196 2182135.3526595803
S84 396358.83028247196 2182133.3831595806
S84  396360.7998824719 2182133.3831595806
S84  396360.7998824719 2182132.3983595804
S84  396360.7998824719   2182131.41355958
S84  396362.7694824719   2182131.41355958
S84  396362.7694824719 2182129.4440595806
S84 396363.75418247195 2182129.4440595806
S84  396364.7389824719 2182129.4440595806
S84  396364.7389824719 2182128.4592595804
S84  396364.7389824719 2182127.4744595806
S84 396366.70858247194 2182127.4744595806
S84 396366.70858247194 2182126.4896595804
S84 396366.70858247194 2182125.5048595807
S84 396368.67808247195 2182125.5048595807
S84 396368.67808247195 2182123.5353595805
S84  396369.6628824719 2182123.5353595805
S84 396370.64768247196 2182123.5353595805
S84 396370.64768247196 2182122.5505595803
S84 396370.64768247196 2182121.5657595806
S84  396372.6172824719 2182121.5657595806
S84  396372.6172824719 2182120.5809595804
S84  396372.6172824719 2182119.5962595805
S84  396374.5867824719 2182119.5962595805
S84  396374.5867824719 2182117.6266595805
S84  396376.5563824719 2182117.6266595805
S84  396376.5563824719 2182116.6418595803
S84  396376.5563824719 2182115.6570595806
S84 396377.54118247196 2182115.6570595806
S84 396378.52588247193 2182115.6570595806
S84 396378.52588247193 2182113.6875595804
S84 396380.49548247195 2182113.6875595804
S84 396380.49548247195   2182112.70275958
S84 396380.49548247195 2182111.8514595805
S84 396380.49548247195 2182111.7179595805
S84  396380.8563824719 2182111.7179595805
S84  396381.4802824719 2182111.7179595805
S84 396382.46508247196 2182111.7179595805
S84 396382.46508247196 2182111.1229595803
S84 396382.46508247196 2182110.7331595803
S84 396382.46508247196 2182109.7484595804
S84 396384.43458247196 2182109.7484595804
S84 396384.43458247196 2182108.7636595806
S84 396384.43458247196 2182107.7788595804
S84  396386.4041824719 2182107.7788595804
S84  396386.4041824719 2182105.8093595803
S84 396387.38898247195 2182105.8093595803
S84  396388.3736824719 2182105.8093595803
S84  396388.3736824719 2182104.8245595805
S84  396388.3736824719 2182103.8397595803
S84 396390.34328247193 2182103.8397595803
S84 396390.34328247193 2182101.8701595804
S84 396392.31288247195 2182101.8701595804
S84 396392.31288247195 2182100.8854595805
S84 396392.31288247195 2182099.9006595802
S84 396394.28238247195 2182099.9006595802
S84 396394.28238247195 2182098.9158595805
S84 396394.28238247195 2182097.9310595803
S84 396395.26718247193 2182097.9310595803
S84 396396.25198247196 2182097.9310595803
S84 396396.25198247196 2182095.9615595806
S84 396396.25198247196   2182093.99195958
S84  396398.2214824719   2182093.99195958
S84  396398.2214824719 2182093.0071595805
S84  396398.2214824719 2182092.0223595803
S84  396400.1910824719 2182092.0223595803
S84  396400.1910824719 2182090.0528595806
S84 396401.17588247196 2182090.0528595806
S84 396402.16068247193 2182090.0528595806
S84 396402.16068247193 2182089.0680595804
S84 396402.16068247193 2182088.0832595807
S84 396404.13018247194 2182088.0832595807
S84 396404.13018247194 2182087.0984595804
S84 396404.13018247194 2182086.1137595805
S84 396406.09978247195 2182086.1137595805
S84 396406.09978247195 2182084.1441595806
S84  396407.0845824719 2182084.1441595806
S84 396408.06928247196 2182084.1441595806
S84 396408.06928247196 2182083.1593595804
S84 396408.06928247196 2182082.1745595806
S84  396410.0388824719 2182082.1745595806
S84  396410.0388824719 2182081.1898595802
S84  396410.0388824719 2182080.2050595805
S84  396412.0084824719 2182080.2050595805
S84  396412.0084824719 2182078.2354595806
S84 396413.97798247193 2182078.2354595806
S84 396413.97798247193 2182077.2506595803
S84 396413.97798247193 2182076.2659595804
S84  396414.9627824719 2182076.2659595804
S84 396415.94758247194 2182076.2659595804
S84 396415.94758247194 2182075.2811595807
S84 396415.94758247194 2182074.2963595805
S84 396417.91708247195 2182074.2963595805
S84 396417.91708247195 2182072.3267595805
S84 396419.88668247196 2182072.3267595805
S84 396419.88668247196 2182071.3420595806
S84 396419.88668247196 2182070.3572595804
S84 396420.87148247194 2182070.3572595804
S84  396421.8562824719 2182070.3572595804
S84  396421.8562824719 2182069.3724595807
S84  396421.8562824719 2182068.3876595804
S84  396423.8257824719 2182068.3876595804
S84  396423.8257824719 2182067.4028595802
S84  396423.8257824719 2182066.4181595803
S84 396425.79538247193 2182066.4181595803
S84 396425.79538247193 2182064.4485595804
S84  396426.7801824719 2182064.4485595804
S84 396427.76488247194 2182064.4485595804
S84 396427.76488247194 2182063.4637595806
S84 396427.76488247194 2182062.4789595804
S84 396429.73448247195 2182062.4789595804
S84 396429.73448247195 2182060.5094595803
S84 396431.70398247195 2182060.5094595803
S84 396431.70398247195 2182059.5246595806
S84 396431.70398247195 2182058.5398595803
S84 396432.68878247193 2182058.5398595803
S84  396433.6735824719 2182058.5398595803
S84  396433.6735824719 2182056.5703595807
S84  396433.6735824719 2182054.6007595803
S84  396435.6431824719 2182054.6007595803
S84  396435.6431824719 2182053.6159595805
S84  396435.6431824719 2182052.6311595803
S84  396437.6126824719 2182052.6311595803
S84  396437.6126824719 2182051.6464595804
S84  396437.6126824719 2182050.6616595807
S84 396438.59748247196 2182050.6616595807
S84 396439.58228247194 2182050.6616595807
S84 396439.58228247194 2182048.6920595802
S84 396441.55178247194 2182048.6920595802
S84 396441.55178247194 2182047.7072595805
S84 396441.55178247194 2182046.7225595806
S84 396443.52138247195 2182046.7225595806
S84 396443.52138247195 2182044.7529595806
S84 396443.52138247195 2182042.7833595807
S84 396444.50618247193 2182042.7833595807
S84  396445.4909824719 2182042.7833595807
S84  396445.4909824719 2182041.7986595803
S84  396445.4909824719 2182040.8138595806
S84  396447.4604824719 2182040.8138595806
S84  396447.4604824719 2182038.8442595806
S84  396447.4604824719 2182036.8747595805
S84  396449.4300824719 2182036.8747595805
S84  396449.4300824719 2182035.8899595803
S84  396449.4300824719 2182034.9051595805
S84 396451.39958247193 2182034.9051595805
S84 396451.39958247193 2182032.9355595806
S84 396451.39958247193 2182030.9660595804
S84  396452.3843824719 2182030.9660595804
S84 396453.36918247194 2182030.9660595804
S84 396453.36918247194 2182029.9812595802
S84 396453.36918247194 2182028.9964595805
S84 396455.33878247195 2182028.9964595805
S84 396455.33878247195 2182027.0269595804
S84 396455.33878247195 2182025.0573595804
S84 396457.30828247196 2182025.0573595804
S84 396457.30828247196 2182024.0725595807
S84 396457.30828247196 2182023.0877595805
S84 396458.29308247194 2182023.0877595805
S84  396459.2778824719 2182023.0877595805
S84  396459.2778824719 2182021.1182595803
S84  396459.2778824719 2182019.1486595804
S84  396461.2473824719 2182019.1486595804
S84  396461.2473824719 2182018.1638595806
S84  396461.2473824719 2182017.1791595803
S84 396463.21698247193 2182017.1791595803
S84 396463.21698247193 2182015.2095595803
S84 396465.18658247194 2182015.2095595803
S84 396465.18658247194   2182013.89655958
S84 396465.18658247194 2182012.5834595803
S84 396465.18658247194 2182011.2704595802
S84  396466.1712824719 2182011.2704595802
S84 396467.15608247195 2182011.2704595802
S84 396467.15608247195 2182009.3008595803
S84 396469.12568247196 2182009.3008595803
S84 396469.12568247196 2182007.9878595807
S84 396469.12568247196 2182006.6747595803
S84 396469.12568247196 2182005.3617595807
S84 396470.11048247194 2182005.3617595807
S84  396471.0951824719 2182005.3617595807
S84  396471.0951824719 2182003.3921595803
S84  396473.0647824719 2182003.3921595803
S84  396473.0647824719 2182001.4226595806
S84  396473.0647824719 2181999.4530595806
S84 396475.03438247193 2181999.4530595806
S84 396475.03438247193 2181998.4682595804
S84 396475.03438247193 2181997.4835595805
S84 396476.01908247196 2181997.4835595805
S84 396477.00388247194 2181997.4835595805
S84 396477.00388247194 2181996.1704595806
S84 396477.00388247194 2181994.8574595805
S84 396477.00388247194 2181993.5443595806
S84 396478.97348247195 2181993.5443595806
S84 396478.97348247195 2181991.5748595805
S84 396480.94298247196 2181991.5748595805
S84 396480.94298247196 2181990.2617595806
S84 396480.94298247196 2181988.9487595805
S84 396480.94298247196 2181987.6357595804
S84 396481.92778247193 2181987.6357595804
S84  396482.9125824719 2181987.6357595804
S84  396482.9125824719 2181985.6661595805
S84  396484.8821824719 2181985.6661595805
S84  396484.8821824719 2181984.3531595804
S84  396484.8821824719 2181983.0400595805
S84  396484.8821824719 2181981.7270595804
S84  396486.8516824719 2181981.7270595804
S84  396486.8516824719 2181979.7574595804
S84 396488.82128247194 2181979.7574595804
S84 396488.82128247194   2181978.77265958
S84 396488.82128247194 2181977.7879595803
S84  396489.8060824719 2181977.7879595803
S84 396490.79078247194 2181977.7879595803
S84 396490.79078247194 2181975.8183595804
S84 396490.79078247194 2181973.8487595804
S84 396492.76038247196 2181973.8487595804
S84 396492.76038247196 2181972.8640595805
S84 396492.76038247196 2181971.8792595803
S84  396494.7299824719 2181971.8792595803
S84  396494.7299824719 2181969.9096595803
S84  396494.7299824719 2181967.9401595807
S84 396495.71468247194 2181967.9401595807
S84  396496.6994824719 2181967.9401595807
S84  396496.6994824719 2181966.9553595805
S84  396496.6994824719 2181965.9705595803
S84  396498.6690824719 2181965.9705595803
S84  396498.6690824719 2181964.0010595806
S84  396498.6690824719 2181962.0314595806
S84 396500.63858247193 2181962.0314595806
S84 396500.63858247193 2181961.0466595804
S84 396500.63858247193   2181960.06185958
S84 396502.60818247194   2181960.06185958
S84 396502.60818247194 2181958.0923595806
S84 396502.60818247194 2181956.1227595806
S84  396503.5929824719 2181956.1227595806
S84 396504.57778247196 2181956.1227595806
S84 396504.57778247196 2181954.1532595805
S84 396506.54728247196 2181954.1532595805
S84 396506.54728247196 2181952.8401595806
S84 396506.54728247196 2181951.5271595805
S84 396506.54728247196 2181950.2140595806
S84  396508.5168824719 2181950.2140595806
S84  396508.5168824719 2181950.0581595805
S84  396096.8549824719 2181799.2200595806
S84 396070.58368247194 2181862.0225595804
S84 396063.91848247196 2182022.3863595803
S84 396163.93698247196 2182191.9487595805
S84 396162.51638247195 2182208.6803595806
S84  396191.8538824719 2182259.4289595806
S84  396201.2655824719   2182255.81075958
S85 396073.24415063026 2182327.3847348574
S85 396073.24415063026 2182326.3999348576
S85  396074.5571506302 2182326.3999348576
S85 396075.87025063025 2182326.3999348576
S85  396077.1832506302 2182326.3999348576
S85  396077.1832506302 2182324.4304348575
S85 396078.49625063024 2182324.4304348575
S85 396079.80935063027 2182324.4304348575
S85 396081.12235063023 2182324.4304348575
S85 396081.12235063023 2182323.4456348573
S85 396081.12235063023 2182322.4608348575
S85 396082.43545063026 2182322.4608348575
S85  396083.7484506302 2182322.4608348575
S85 396085.06145063025 2182322.4608348575
S85 396085.06145063025 2182321.4760348573
S85 396085.06145063025  2182321.025734857
S85 396085.06145063025 2182320.4913348574
S85 396087.03105063026 2182320.4913348574
S85  396089.0006506302 2182320.4913348574
S85  396089.0006506302 2182318.5217348575
S85 396089.98535063025 2182318.5217348575
S85  396090.9701506302 2182318.5217348575
S85  396090.9701506302 2182317.5369348573
S85  396090.9701506302 2182316.5521348575
S85 396092.93975063023 2182316.5521348575
S85 396094.90925063024 2182316.5521348575
S85 396094.90925063024 2182315.5674348576
S85 396094.90925063024 2182314.5826348574
S85 396096.22235063027 2182314.5826348574
S85 396097.53535063023 2182314.5826348574
S85 396098.84845063026 2182314.5826348574
S85 396098.84845063026 2182312.6130348574
S85 396100.81795063027 2182312.6130348574
S85  396102.7875506302 2182312.6130348574
S85  396102.7875506302  2182311.628234857
S85  396102.7875506302 2182310.6435348573
S85 396103.77235063026 2182310.6435348573
S85  396104.7570506302 2182310.6435348573
S85  396104.7570506302 2182308.6739348574
S85 396106.72665063024 2182308.6739348574
S85 396108.69625063025 2182308.6739348574
S85 396108.69625063025 2182307.6891348576
S85 396108.69625063025 2182306.7043348574
S85  396110.0092506302 2182306.7043348574
S85 396111.32225063024 2182306.7043348574
S85 396112.63535063027 2182306.7043348574
S85 396112.63535063027 2182305.7196348575
S85 396112.63535063027 2182304.7348348573
S85  396114.6048506302 2182304.7348348573
S85  396115.0571506302 2182304.7348348573
S85  396116.5744506302 2182304.7348348573
S85  396116.5744506302 2182303.7500348575
S85  396116.5744506302 2182303.0366348573
S85  396116.5744506302 2182302.7652348573
S85  396116.8169506302 2182302.7653348576
S85 396117.88755063026 2182302.7653348576
S85  396119.2005506302 2182302.7653348576
S85 396120.51365063025 2182302.7653348576
S85 396120.51365063025  2182300.795734857
S85  396121.4984506302  2182300.795734857
S85 396122.48315063026  2182300.795734857
S85 396122.48315063026 2182299.8109348575
S85 396122.48315063026 2182298.8261348573
S85 396124.45275063027 2182298.8261348573
S85  396126.4223506302 2182298.8261348573
S85  396126.4223506302 2182296.8566348576
S85 396127.73535063025 2182296.8566348576
S85 396129.04835063027 2182296.8566348576
S85 396130.36145063024 2182296.8566348576
S85 396130.36145063024 2182295.8718348574
S85 396130.36145063024  2182294.887034857
S85 396132.33095063025  2182294.887034857
S85 396134.30055063026  2182294.887034857
S85 396134.30055063026 2182293.9022348574
S85 396134.30055063026 2182292.9175348575
S85  396135.6135506302 2182292.9175348575
S85 396136.92665063025 2182292.9175348575
S85  396138.2396506302 2182292.9175348575
S85  396138.2396506302 2182291.9327348573
S85  396138.2396506302 2182290.9479348576
S85  396140.2092506302 2182290.9479348576
S85  396140.2092506302 2182288.9783348576
S85 396141.52225063025 2182288.9783348576
S85  396142.8353506302 2182288.9783348576
S85 396144.14835063025 2182288.9783348576
S85 396144.14835063025 2182287.9936348572
S85 396144.14835063025 2182287.0088348575
S85 396146.11795063026 2182287.0088348575
S85 396148.08745063026 2182287.0088348575
S85 396148.08745063026 2182286.0240348573
S85 396148.08745063026 2182285.0392348575
S85 396149.40055063023 2182285.0392348575
S85 396150.71355063026 2182285.0392348575
S85  396152.0265506302 2182285.0392348575
S85  396152.0265506302 2182283.0697348574
S85 396153.33965063025 2182283.0697348574
S85  396154.6526506302 2182283.0697348574
S85 396155.96565063024 2182283.0697348574
S85 396155.96565063024  2182282.084934857
S85 396155.96565063024 2182281.1001348575
S85 396157.93525063025 2182281.1001348575
S85 396157.93525063025 2182279.1306348573
S85  396159.2482506302 2182279.1306348573
S85 396160.56135063025 2182279.1306348573
S85 396161.87435063027 2182279.1306348573
S85 396161.87435063027 2182278.1458348576
S85 396161.87435063027 2182277.1610348574
S85  396163.8439506302 2182277.1610348574
S85 396165.81345063023 2182277.1610348574
S85 396165.81345063023  2182276.176234857
S85 396165.81345063023 2182275.1914348574
S85 396167.12655063026 2182275.1914348574
S85  396168.4395506302 2182275.1914348574
S85 396169.75265063025 2182275.1914348574
S85 396169.75265063025 2182274.2067348575
S85 396169.75265063025 2182273.2219348573
S85  396171.0656506302 2182273.2219348573
S85 396172.37865063024 2182273.2219348573
S85 396173.69175063027 2182273.2219348573
S85 396173.69175063027 2182271.2523348574
S85  396175.6612506302 2182271.2523348574
S85  396175.6612506302 2182270.2675348576
S85  396175.6612506302 2182269.2828348572
S85 396177.63085063023 2182269.2828348572
S85 396179.60045063024 2182269.2828348572
S85 396179.60045063024 2182267.3132348573
S85 396180.91345063027 2182267.3132348573
S85 396182.22645063023 2182267.3132348573
S85 396183.53955063026 2182267.3132348573
S85 396183.53955063026 2182266.3284348575
S85 396183.53955063026 2182265.3436348573
S85  396184.8525506302 2182265.3436348573
S85 396186.16565063025 2182265.3436348573
S85  396187.4786506302 2182265.3436348573
S85  396187.4786506302 2182264.3589348574
S85  396187.4786506302  2182263.374134857
S85 396189.44825063023  2182263.374134857
S85 396189.44825063023 2182262.3893348575
S85 396189.44825063023 2182261.4045348573
S85 396190.76125063025 2182261.4045348573
S85  396192.0742506302 2182261.4045348573
S85 396193.38735063025 2182261.4045348573
S85 396193.38735063025 2182259.4350348576
S85 396195.35685063025 2182259.4350348576
S85 396197.32645063027 2182259.4350348576
S85 396197.32645063027 2182258.4502348574
S85 396197.32645063027 2182257.4654348576
S85 396198.63945063023 2182257.4654348576
S85 396199.95255063026 2182257.4654348576
S85  396201.2655506302 2182257.4654348576
S85  396201.2655506302 2182255.8108348576
S85  396191.8538506302 2182259.4289348572
S85 396162.51625063026  2182208.680334857
S85  396163.9369506302 2182191.9487348576
S85 396063.91845063027 2182022.3863348574
S85  395966.7383506303 2182168.4384348574
S85 396023.49315063027 2182273.8585348576
S85 396045.15495063027 2182278.8174348576
S85 396073.24415063026 2182327.4154348574
S85 396073.24415063026 2182327.3847348574
S86    396725.16840961  2181641.475899437
S86  396696.6753853436 2181603.6747780773
S86 396319.15752785606  2181383.262635215
S86 396617.06259224075   2181794.61888112
S86  396618.8122096103   2181794.61888112
S86  396618.8122096081   2181792.64938112
S86  396618.8122096081 2181790.6797811193
S86  396620.7818096089 2181790.6797811193
S86  396620.7818096089 2181789.6949811187
S86 396620.78180961113 2181788.7101811185
S86  396621.7666096093  2181788.710181121
S86  396622.7513096109 2181788.7101811185
S86  396622.7513096087  2181787.725481119
S86  396622.7513096087  2181786.740681119
S86  396624.7209096095  2181786.740681119
S86  396624.7209096095  2181784.771081118
S86  396624.7209096095   2181782.80158112
S86 396626.69050961034   2181782.80158112
S86 396626.69050961034 2181780.8319811192
S86  396628.6600096101 2181780.8319811192
S86  396628.6600096101  2181779.518981118
S86  396628.6600096101  2181778.205881118
S86  396628.6600096101 2181776.8928811187
S86 396629.64480960835 2181776.8928811187
S86 396630.62960960873 2181776.8928811187
S86 396630.62960960873   2181774.92328112
S86 396632.59910960856  2181774.923281118
S86  396632.5991096108   2181773.93848112
S86 396632.59910960856  2181772.953781118
S86  396634.5687096071  2181772.953781118
S86  396634.5687096094 2181770.9841811196
S86  396634.5687096094 2181769.0145811187
S86  396635.5535096098 2181769.0145811187
S86 396636.53830960795 2181769.0145811187
S86  396636.5383096102 2181768.0298811193
S86  396636.5383096102  2181767.045081119
S86    396638.50780961  2181767.045081119
S86    396638.50780961  2181765.075481118
S86    396638.50780961 2181763.1059811204
S86  396640.4774096086 2181763.1059811185
S86  396640.4774096108   2181762.12118112
S86  396640.4774096086   2181761.13638112
S86   396641.462209609   2181761.13638112
S86  396642.4469096106   2181761.13638112
S86  396642.4469096084 2181759.8233811185
S86  396642.4469096106 2181758.5102811204
S86  396642.4469096106  2181757.197281119
S86  396644.4165096092  2181757.197281119
S86  396644.4165096092 2181755.2276811204
S86 396646.38610961003 2181755.2276811204
S86 396646.38610961003   2181754.24288112
S86 396646.38610961003 2181753.2581811184
S86  396647.3708096094 2181753.2581811184
S86 396648.35560960986 2181753.2581811184
S86 396648.35560960986   2181751.28858112
S86 396648.35560960986  2181749.318981119
S86 396650.32520961063  2181749.318981119
S86  396650.3252096084 2181747.3494811193
S86 396652.29470961046 2181747.3494811193
S86 396652.29470960825  2181746.036381119
S86 396652.29470961046   2181744.72338112
S86 396652.29470961046 2181743.4103811188
S86 396653.27950960863 2181743.4103811188
S86  396654.2643096091 2181743.4103811188
S86  396654.2643096091 2181742.4255811204
S86  396654.2643096091   2181741.44078112
S86  396656.2339096099   2181741.44078112
S86  396656.2339096099 2181739.4711811193
S86  396658.2034096097 2181739.4711811193
S86  396658.2034096097 2181737.5016811197
S86  396658.2034096097  2181735.532081119
S86 396659.18820961006  2181735.532081119
S86  396660.1730096083  2181735.532081119
S86  396660.1730096105 2181734.5472811204
S86  396660.1730096083 2181733.5625811187
S86  396662.1425096103 2181733.5625811187
S86  396662.1425096103  2181731.592981118
S86 396662.14250960806  2181729.623381119
S86  396664.1121096089  2181729.623381119
S86  396664.1121096089 2181728.6386811202
S86  396664.1121096089 2181727.6538811196
S86  396666.0817096097 2181727.6538811196
S86  396666.0817096075 2181726.6690811194
S86  396666.0817096097 2181725.6842811187
S86  396667.0664096091 2181725.6842811187
S86 396668.05120960955  2181725.684281121
S86 396668.05120960955  2181723.714781119
S86 396668.05120960955  2181721.745181118
S86  396670.0208096103  2181721.745181118
S86  396670.0208096103   2181720.76038112
S86  396670.0208096103 2181719.7755811196
S86 396671.99030961015 2181719.7755811196
S86 396671.99030961015   2181717.80608112
S86 396671.99030961015  2181715.836481119
S86  396672.9751096083  2181715.836481119
S86   396673.959909611  2181715.836481119
S86 396673.95990960876 2181714.8516811184
S86 396673.95990960876  2181713.866981119
S86  396675.9295096096  2181713.866981119
S86  396675.9295096118 2181712.8821811187
S86  396675.9295096096 2181711.8973811204
S86 396677.89900960936 2181711.8973811204
S86 396677.89900960936 2181709.9277811195
S86 396677.89900960936   2181707.95828112
S86  396679.8686096102   2181707.95828112
S86   396679.868609608  2181705.988681119
S86  396680.8534096106  2181705.988681119
S86 396681.83810960996  2181705.988681119
S86 396681.83810960775   2181704.67568112
S86 396681.83810960996   2181703.36258112
S86 396681.83810960996 2181702.0495811207
S86  396683.8077096108 2181702.0495811207
S86  396683.8077096108   2181700.07998112
S86   396684.792509609   2181700.07998112
S86  396685.7773096094   2181700.07998112
S86  396685.7773096094 2181698.7669811184
S86  396685.7773096094  2181697.453981119
S86  396685.7773096094 2181696.1408811193
S86 396687.74680960923 2181696.1408811193
S86 396687.74680960923 2181694.1713811196
S86    396689.71640961 2181694.1713811196
S86    396689.71640961  2181693.186581119
S86    396689.71640961 2181692.2017811188
S86 396690.70120961044 2181692.2017811188
S86 396691.68590960983 2181692.2017811188
S86 396691.68590960983 2181690.2322811186
S86 396691.68590960983   2181688.26268112
S86 396693.65550960845  2181688.262681118
S86 396693.65550960845   2181687.27788112
S86 396693.65550960845  2181686.293081119
S86  396695.6251096093  2181686.293081119
S86  396695.6251096093 2181684.3235811195
S86  396695.6251096093 2181682.3539811186
S86 396696.60980960866 2181682.3539811186
S86 396697.59460960905 2181682.3539811186
S86 396697.59460960905 2181681.3691811184
S86 396697.59460960905  2181680.384481119
S86  396699.5642096099  2181680.384481119
S86  396699.5642096099  2181679.399681119
S86  396699.5642096099  2181678.414881118
S86 396701.53370960965 2181678.4148811204
S86 396701.53370960965 2181676.4452811196
S86 396701.53370960965   2181674.47578112
S86  396703.5033096105   2181674.47578112
S86 396703.50330960826  2181672.506181119
S86  396704.4881096109  2181672.506181119
S86  396705.4728096103  2181672.506181119
S86  396705.4728096103   2181671.19318112
S86  396705.4728096103 2181669.8800811195
S86  396705.4728096081 2181668.5670811185
S86  396707.4424096089 2181668.5670811185
S86  396707.4424096089  2181667.582281118
S86 396707.44240961113   2181666.59748112
S86 396709.41200960975   2181666.59748112
S86 396709.41200960975   2181664.62798112
S86 396710.39670960914   2181664.62798112
S86  396711.3815096095   2181664.62798112
S86  396711.3815096095  2181662.658381119
S86  396711.3815096095 2181660.6888811192
S86 396713.35110961035 2181660.6888811192
S86 396713.35110961035  2181659.704081119
S86 396713.35110961035 2181658.7192811184
S86  396715.3206096101 2181658.7192811184
S86  396715.3206096101   2181656.74968112
S86  396715.3206096079   2181654.78018112
S86 396717.29020960873  2181654.780181118
S86 396717.29020960873 2181653.7953811195
S86 396717.29020961095 2181652.8105811193
S86  396718.2750096092 2181652.8105811193
S86 396719.25980960956 2181652.8105811193
S86 396719.25980960956  2181651.825781119
S86 396719.25980960956 2181650.8410811196
S86  396721.2293096094 2181650.8410811196
S86  396721.2293096094 2181648.8714811187
S86  396721.2293096094   2181646.90188112
S86 396723.19890960795   2181646.90188112
S86 396723.19890961016 2181645.9171811184
S86 396723.19890961016   2181644.93238112
S86  396724.1837096106  2181644.932381118
S86    396725.16840961   2181644.93238112
S86    396725.16840961 2181642.9627811196
S86    396725.16840961  2181641.475899437
S87  396480.1150650975 2180227.9102943474
S87  396478.7465096091 2180226.2012811187
S87 396468.74650960916 2180226.2012811187
S87 396463.74650960916 2180226.2012811187
S87 396458.74650960916 2180226.2012811187
S87  396448.7465096092 2180226.2012811187
S87  396438.7465096115 2180226.2012811187
S87  396438.7465096092 2180221.2012811187
S87  396433.7465096093 2180221.2012811187
S87  396428.7465096115 2180221.2012811187
S87  396423.7465096093 2180221.2012811187
S87 396418.74650960934 2180221.2012811187
S87 396413.74650960934 2180221.2012811187
S87 396408.74650960934 2180221.2012811187
S87  396403.7465096071 2180221.2012811187
S87  396398.7465096094 2180221.2012811187
S87  396393.7465096094 2180221.2012811187
S87  396388.7465096094 2180221.2012811187
S87 396383.74650960945 2180221.2012811187
S87 396378.74650960945 2180221.2012811187
S87 396373.74650960945 2180221.2012811187
S87  396368.7465096095 2180221.2012811187
S87  396363.7465096095 2180221.2012811187
S87  396363.0257096103 2180221.2012811187
S87  396358.7465096095 2180221.2012811187
S87 396357.03644127643 2180221.2012811187
S87 396494.86586482305 2180574.6916665025
S87 396935.86912288656 2181332.4358473383
S87 396987.08038768603  2181357.099433546
S87  396480.1150650975 2180227.9102943474
S88  396924.6819290923   2181442.06768112
S88 396935.86912288656 2181332.4358473383
S88 396494.86586482305 2180574.6916665025
S88 396842.34921636875  2181509.032781119
S88  396843.3420096103  2181509.032781119
S88  396843.3420096103 2181508.0479811183
S88  396843.3420096103   2181507.06318112
S88 396844.32680960855  2181507.063181118
S88 396845.31160960894  2181507.063181118
S88 396845.31160960894 2181505.0935811196
S88  396847.2811096087 2181505.0935811196
S88  396847.2811096087   2181504.10888112
S88   396847.281109611 2181503.1240811194
S88 396849.25070960954 2181503.1240811194
S88 396849.25070960954  2181502.139281119
S88 396849.25070960954 2181501.1544811185
S88    396850.23550961 2181501.1544811185
S88 396851.22030961036 2181501.1544811185
S88 396851.22030961036  2181499.184981119
S88  396853.1898096102  2181499.184981119
S88  396853.1898096102 2181498.2001811187
S88  396853.1898096102 2181497.2153811203
S88  396855.1594096088  2181497.215381118
S88   396855.159409611 2181495.2457811194
S88  396856.1442096114 2181495.2457811194
S88  396857.1289096086 2181495.2457811194
S88  396857.1289096086   2181494.26108112
S88  396857.1289096108   2181493.27628112
S88  396859.0985096094   2181493.27628112
S88  396859.0985096094  2181492.291481119
S88  396859.0985096094  2181491.306681119
S88 396861.06810961023  2181491.306681119
S88 396861.06810961023 2181490.3218811187
S88 396861.06810961023 2181489.3371811192
S88  396862.0528096096 2181489.3371811192
S88    396863.03760961 2181489.3371811192
S88    396863.03760961 2181487.3675811184
S88 396865.00720961083 2181487.3675811184
S88  396865.0072096086   2181486.38278112
S88  396865.0072096086   2181485.39798112
S88 396866.97670960845   2181485.39798112
S88 396866.97670961067  2181483.428481118
S88  396868.2898096086 2181483.4284811197
S88  396869.6028096099 2181483.4284811197
S88 396870.91590961005 2181483.4284811197
S88 396870.91590960784 2181482.4436811195
S88 396870.91590961005 2181481.4588811193
S88  396872.8854096099 2181481.4588811193
S88  396872.8854096099  2181480.474081121
S88  396872.8854096099  2181479.489381119
S88 396873.87020961026  2181479.489381119
S88  396874.8550096107  2181479.489381119
S88  396874.8550096085  2181478.504581119
S88  396874.8550096085 2181477.5197811183
S88 396876.82450960827 2181477.5197811183
S88  396878.7941096113 2181477.5197811183
S88  396878.7941096091 2181475.5501811197
S88 396880.76370961213 2181475.5501811174
S88  396880.7637096099 2181474.5654811184
S88  396880.7637096099   2181473.58068112
S88  396881.7484096093   2181473.58068112
S88 396882.73320961196   2181473.58068112
S88  396882.7332096097  2181471.611081119
S88  396884.7028096083  2181471.611081119
S88 396886.67230961035  2181471.611081119
S88 396886.67230961035  2181470.626281119
S88 396886.67230960814 2181469.6415811195
S88 396887.65710961074 2181469.6415811195
S88  396888.6419096089 2181469.6415811195
S88  396888.6419096089  2181468.656781119
S88  396888.6419096089 2181467.6719811186
S88 396890.61150960973 2181467.6719811186
S88 396892.58100960957 2181467.6719811186
S88 396892.58100960957   2181465.70238112
S88  396894.5506096082   2181465.70238112
S88  396894.5506096104 2181464.7176811183
S88  396894.5506096104 2181463.7328811204
S88 396895.53540960856 2181463.7328811204
S88 396896.52010961017 2181463.7328811204
S88 396896.52010961017 2181462.7480811197
S88 396896.52010960795 2181461.7632811195
S88  396898.4897096088 2181461.7632811195
S88  396900.4593096096 2181461.7632811195
S88  396900.4593096096 2181459.7937811194
S88  396901.4440096112 2181459.7937811194
S88  396902.4288096094 2181459.7937811194
S88  396902.4288096094  2181458.808981119
S88  396902.4288096094  2181457.824181121
S88  396904.3984096102  2181457.824181121
S88  396904.3984096102 2181456.8393811183
S88  396904.3984096102   2181455.85458112
S88 396905.71140960936   2181455.85458112
S88  396907.0245096095   2181455.85458112
S88 396908.33750960865   2181455.85458112
S88 396908.33750961086 2181453.8850811203
S88  396910.3071096094 2181453.8850811203
S88  396910.3071096094   2181452.90028112
S88  396910.3071096094 2181451.9154811194
S88  396911.2918096088 2181451.9154811194
S88 396912.27660960925 2181451.9154811194
S88 396912.27660960925 2181449.9459811198
S88  396914.2462096101 2181449.9459811198
S88 396916.21570960985 2181449.9459811198
S88 396916.21570960985  2181448.961181119
S88 396916.21570960985  2181447.976381119
S88  396918.1853096107  2181447.976381119
S88  396918.1853096107 2181446.9915811187
S88 396918.18530960847 2181446.0067811203
S88 396919.17010960885 2181446.0067811203
S88  396920.1549096093 2181446.0067811203
S88  396920.1549096093 2181445.0220811185
S88  396920.1549096093 2181444.0372811207
S88 396922.12440960907 2181444.0372811183
S88  396924.0940096099 2181444.0372811183
S88  396924.0940096099   2181442.06768112
S88  396924.6819290923   2181442.06768112
S89   397899.833873362  2181109.212081119
S89 397997.79172026104  2181045.295623913
S89  397972.9872096095   2181038.79648112
S89 397911.15130960906 2181043.6060811183
S89 397892.25300960935 2181053.6060811183
S89 397878.11290961056 2181047.4805811197
S89 397852.34210961225 2181033.8440811187
S89 397843.74650960875 2181033.5035811192
S89 397830.79910961015 2181034.0162811186
S89  397695.7314096085 2181027.6319811186
S89  397666.1818096101   2181028.80258112
S89 397621.77510961035 2181019.5118811196
S89   397585.659909608 2181028.9747811197
S89 397557.55810960906  2181027.861481119
S89  397544.2378096088 2181034.9097811184
S89 397482.67650961113  2181032.469581119
S89  397446.3417096096   2181038.79648112
S89  397416.1513096108 2181043.6060811207
S89  397397.1327096077 2181050.2723811194
S89  397334.9471096091 2181058.7708811206
S89  397306.3417096101 2181068.7964811195
S89  397280.2895096085 2181073.7708811183
S89  397253.6079096095 2181087.8882811186
S89  397240.8095096095  2181063.701281119
S89  397251.3417096103 2181043.7964811195
S89  397256.1513096091  2181023.606081119
S89  397280.9895096087   2181017.68938112
S89  397281.8758096105 2180995.3309811195
S89   397276.341709608  2180983.606081119
S89 397261.38690960937   2180969.74988112
S89  397261.1476096069 2180963.7012811196
S89  397262.2090096092  2180936.915381118
S89 397255.39140960865  2180910.897381119
S89 397263.01470961043   2180837.74548112
S89 397256.34170960804 2180823.6060811193
S89  397246.1513096092  2180808.796481118
S89  397241.3417096103 2180793.6060811193
S89 397224.31110960915 2180768.8563811188
S89 397233.40100961115  2180742.921281119
S89 397221.65790960885  2180669.202981119
S89  397216.1513096093  2180658.796481119
S89  397211.1775096101 2180643.0860811193
S89  397191.3869096096  2180624.749881119
S89  397190.8504096093 2180611.2012811196
S89    397191.53760961 2180593.8611811195
S89 397171.50590960874   2180567.73818112
S89  397170.5727096083 2180544.2029811195
S89 397189.34100961004 2180534.2725811186
S89 397208.74650960875  2180533.503581119
S89  397233.7465096087  2180534.493581119
S89  397268.7465096086   2180533.10678112
S89  397286.2465096096 2180533.8001811192
S89 397291.24650960957 2180533.6023811204
S89  397341.2465096094   2180535.58358112
S89  397393.7465096103  2180533.503581119
S89 397411.24650960916  2180534.196881119
S89  397433.7465096102 2180533.3045811187
S89  397458.7465096101 2180534.2957811197
S89    397503.74650961 2180532.5123811197
S89 397594.66450960824 2180536.1158811194
S89  397596.3454096091 2180493.7012811187
S89   397595.553109609 2180473.7012811187
S89  397596.3484096108 2180453.6255811197
S89  397590.3597096106 2180436.5381811187
S89  397593.7465096096  2180381.201281118
S89 397587.25600960996 2180364.3152811197
S89  397585.3139096098  2180348.701281119
S89  397588.1160096099 2180326.1731811203
S89  397583.7465096097  2180291.201281118
S89  397555.9248096096   2180289.02358112
S89 397541.56810961117   2180278.37908112
S89  397511.7006096081 2180273.3057811204
S89  397491.5681096091   2180258.37908112
S89 397479.25740960904   2180253.34118112
S89  397467.7504096099 2180238.4327811194
S89 397418.74650961027 2180236.2012811187
S89  397415.9621096108  2180248.022581119
S89 397401.84040960873 2180238.1080811205
S89  397388.7465096103 2180236.2012811187
S89  397386.2965096107   2180243.75138112
S89 397371.19640960905 2180248.6512811184
S89 397361.84340961056 2180258.3863811214
S89 397358.74650960823 2180236.2012811187
S89 397331.10610960977 2180233.8416811195
S89 397293.74650960846 2180201.2012811187
S89  397293.7465096107 2180206.2012811187
S89 397288.74650960846 2180206.2012811187
S89 397288.74650960846 2180211.2012811187
S89  397282.7998096103  2180218.360681119
S89  397263.7465096086 2180211.2012811187
S89  397240.4262096083  2180209.521581119
S89  397233.7465096109 2180206.2012811187
S89  397228.7465096109 2180206.2012811187
S89  397223.7465096087 2180206.2012811187
S89 397218.74650961097 2180206.2012811187
S89 397213.74650961097 2180206.2012811187
S89 397208.74650960875 2180206.2012811187
S89  397193.7465096088 2180206.2012811187
S89   397193.746509611 2180201.2012811187
S89  397188.7465096088 2180201.2012811187
S89  397183.7465096111 2180201.2012811187
S89 397178.74650960887 2180201.2012811187
S89 397178.74650960887 2180211.2012811187
S89 397173.74650960887 2180211.2012811187
S89 397173.74650960666 2180216.2012811187
S89  397168.7465096089 2180216.2012811187
S89  397163.7465096089 2180216.2012811187
S89  397163.7465096089 2180211.2012811187
S89 397158.74650961114 2180211.2012811187
S89  397158.7465096089 2180201.2012811187
S89  397153.7465096089 2180201.2012811187
S89   397148.746509609 2180201.2012811187
S89   397143.746509609 2180201.2012811187
S89   397138.746509609 2180201.2012811187
S89 397133.74650960905 2180201.2012811187
S89 397128.74650960905 2180201.2012811187
S89 397123.74650960905 2180201.2012811187
S89  397118.7465096091 2180201.2012811187
S89  397113.7465096091 2180201.2012811187
S89  397108.7465096091 2180201.2012811187
S89  397103.7465096114 2180201.2012811187
S89 397098.74650960916 2180201.2012811187
S89 397093.74650960916 2180201.2012811187
S89 397088.74650960916 2180201.2012811187
S89 397083.74650961143 2180201.2012811187
S89  397078.7465096092 2180201.2012811187
S89  397073.7465096092 2180201.2012811187
S89  397068.7465096093 2180201.2012811187
S89  397063.7465096093 2180201.2012811187
S89  397058.7465096115 2180201.2012811187
S89  397053.7465096093 2180201.2012811187
S89 397048.74650960934 2180201.2012811187
S89 397043.74650960934 2180201.2012811187
S89 397038.74650960934 2180201.2012811187
S89  397033.7465096094 2180201.2012811187
S89  397028.7465096094 2180201.2012811187
S89  397023.7465096094 2180201.2012811187
S89 397018.74650960945 2180201.2012811187
S89 397013.74650960945 2180201.2012811187
S89 397008.74650960945 2180201.2012811187
S89  397003.7465096095 2180201.2012811187
S89  396998.7465096095 2180201.2012811187
S89  396993.7465096095 2180201.2012811187
S89  396988.7465096095 2180201.2012811187
S89 396983.74650960957 2180201.2012811187
S89 396978.74650960957 2180201.2012811187
S89 396973.74650960957 2180201.2012811187
S89 396973.74650960957 2180206.2012811187
S89  396973.7465096118 2180211.2012811187
S89  396968.7465096096 2180211.2012811187
S89  396968.7465096096 2180216.2012811187
S89  396963.7465096096 2180216.2012811187
S89  396963.7465096096 2180246.2012811187
S89  396958.7465096096 2180246.2012811187
S89  396953.7465096097 2180246.2012811187
S89 396951.70430961007  2180249.159081119
S89  396932.0610096086  2180253.243581119
S89  396908.2677096095 2180237.7491811197
S89 396903.74650960986 2180231.2012811187
S89 396898.74650960986 2180231.2012811187
S89 396893.74650960986 2180231.2012811187
S89  396883.7465096099 2180231.2012811187
S89  396878.7465096099 2180231.2012811187
S89  396878.7465096077 2180236.2012811187
S89  396873.7465096099 2180236.2012811187
S89  396873.7465096099 2180241.2012811187
S89    396863.74650961 2180241.2012811187
S89    396863.74650961 2180251.2012811187
S89 396853.74650961003 2180251.2012811187
S89  396849.5970096108 2180264.6387811196
S89  396804.0718096104   2180300.14788112
S89 396764.60340960976   2180282.77598112
S89  396718.7465096105 2180231.2012811187
S89  396713.7465096105 2180231.2012811187
S89  396713.7465096083 2180226.2012811187
S89  396708.7465096083 2180226.2012811187
S89  396708.7465096105 2180221.2012811187
S89 396703.74650961056 2180221.2012811187
S89 396698.74650960835 2180221.2012811187
S89 396693.74650960835 2180221.2012811187
S89 396688.74650961056 2180221.2012811187
S89  396683.7465096106 2180221.2012811187
S89  396678.7465096106 2180221.2012811187
S89  396673.7465096106 2180221.2012811187
S89  396668.7465096107 2180221.2012811187
S89 396663.74650960846 2180221.2012811187
S89  396658.7465096107 2180221.2012811187
S89 396653.74650961073 2180221.2012811187
S89  396648.7465096085 2180221.2012811187
S89 396643.74650961073 2180221.2012811187
S89  396638.7465096108 2180221.2012811187
S89  396636.2465096097   2180227.60508112
S89  396633.7465096086 2180221.2012811187
S89  396628.7465096086 2180221.2012811187
S89  396623.7465096086 2180221.2012811187
S89 396618.74650960864 2180221.2012811187
S89 396613.74650960864 2180221.2012811187
S89 396608.74650961085 2180221.2012811187
S89 396603.74650960864 2180221.2012811187
S89  396598.7465096087 2180221.2012811187
S89  396593.7465096087 2180221.2012811187
S89  396588.7465096087 2180221.2012811187
S89 396583.74650961097 2180221.2012811187
S89 396578.74650960875 2180221.2012811187
S89 396578.74650960875 2180246.2012811187
S89  396568.7465096088 2180246.2012811187
S89  396568.7465096088 2180256.2012811187
S89  396548.7465096111 2180256.2012811187
S89 396548.74650960887 2180246.2012811187
S89 396538.74650961114 2180246.2012811187
S89 396516.24710960954 2180249.0125811193
S89 396494.88540960895 2180246.3550811196
S89  396480.1150650975 2180227.9102943474
S89 396987.08038768603  2181357.099433546
S89  397005.2758817205  2181382.980881118
S89  397006.8155096093  2181382.980881118
S89  397006.8155096093  2181381.996181119
S89  397006.8155096093 2181381.0113811186
S89  397007.8003096097 2181381.0113811186
S89 397008.78500960907 2181381.0113811186
S89  397008.7850096113   2181379.04178112
S89  397010.7546096099 2181379.0417811177
S89  397010.7546096099   2181378.05698112
S89  397010.7546096099 2181377.0722811203
S89 397012.06760960905 2181377.0722811203
S89  397013.3807096092 2181377.0722811203
S89 397014.69370961055 2181377.0722811203
S89 397014.69370961055 2181375.1026811195
S89  397016.6633096091 2181375.1026811195
S89  397016.6633096091  2181374.117881119
S89  397016.6633096091 2181373.1330811186
S89 397018.63280960894 2181373.1330811186
S89 397018.63280960894  2181372.148381119
S89 397018.63280960894  2181371.163581119
S89  397019.9459096091  2181371.163581119
S89 397021.25890961045  2181371.163581119
S89  397022.5720096106  2181371.163581119
S89  397022.5720096084 2181370.1787811182
S89  397022.5720096106 2181369.1939811204
S89 397024.54150961037 2181369.1939811204
S89 397024.54150961037 2181367.2244811202
S89  397026.5111096112  2181367.224481118
S89   397026.511109609 2181366.2396811177
S89  397026.5111096112 2181365.2548811194
S89  397027.8241096081 2181365.2548811194
S89  397029.1372096083 2181365.2548811194
S89  397030.4502096096 2181365.2548811194
S89  397030.4502096096 2181363.2852811185
S89  397032.4198096104 2181363.2852811185
S89  397032.4198096082 2181362.3005811195
S89  397032.4198096104  2181361.315781119
S89  397033.4045096098  2181361.315781119
S89 397034.38930961024  2181361.315781119
S89 397034.38930961024 2181360.3309811186
S89 397034.38930961024  2181359.346181118
S89 397036.35890961107  2181359.346181118
S89  397038.3284096086  2181359.346181118
S89 397038.32840961084   2181358.36138112
S89 397038.32840961084 2181357.3766811183
S89   397039.313209609 2181357.3766811183
S89 397040.29800960945 2181357.3766811206
S89 397040.29800961167 2181355.4070811197
S89 397042.26760960807 2181355.4070811197
S89  397042.2676096103  2181354.422281119
S89  397042.2676096103  2181353.437481119
S89  397043.5806096094  2181353.437481119
S89 397044.89360961074  2181353.437481119
S89 397046.20670960867  2181353.437481119
S89  397046.2067096109  2181351.467981119
S89 397048.17620960844  2181351.467981119
S89 397048.17620960844 2181350.4831811185
S89 397048.17620960844 2181349.4983811183
S89 397050.14580960927 2181349.4983811183
S89 397050.14580960927   2181348.51358112
S89 397050.14580960927 2181347.5288811186
S89  397051.4588096084 2181347.5288811186
S89  397052.7719096108 2181347.5288811186
S89  397054.0849096099 2181347.5288811186
S89  397054.0849096099 2181345.5592811196
S89  397056.0545096085 2181345.5592811196
S89 397056.05450961075 2181344.5744811194
S89 397056.05450961075  2181343.589681119
S89 397057.36750960985  2181343.589681119
S89    397058.68060961  2181343.589681119
S89 397059.99360960914  2181343.589681119
S89 397059.99360961135 2181342.6049811197
S89 397059.99360960914  2181341.620181119
S89 397061.96320960997  2181341.620181119
S89 397061.96320960997  2181339.650581118
S89 397063.93270960974  2181339.650581118
S89 397063.93270960974 2181338.6657811203
S89  397063.9327096075 2181337.6810811185
S89  397065.2458096099 2181337.6810811185
S89 397066.55880960904 2181337.6810811185
S89  397067.8718096104 2181337.6810811185
S89  397067.8718096104 2181336.6962811183
S89  397067.8718096104   2181335.71148112
S89 397069.84140960895   2181335.71148112
S89 397069.84140960895  2181333.741881119
S89 397071.81100960757  2181333.741881119
S89  397071.8110096098 2181332.7571811196
S89  397071.8110096098 2181331.7723811194
S89 397073.12400961114 2181331.7723811194
S89  397074.4370096125 2181331.7723811194
S89 397075.75010961044 2181331.7723811194
S89 397075.75010961044 2181329.8027811185
S89  397076.7349096108 2181329.8027811185
S89  397077.7196096102 2181329.8027811185
S89  397077.7196096102   2181328.81798112
S89  397077.7196096102  2181327.833281119
S89  397079.6892096088  2181327.833281119
S89 397079.68920961104 2181325.8636811203
S89  397081.0022096102 2181325.8636811203
S89 397082.31530961033 2181325.8636811203
S89  397083.6283096094 2181325.8636811203
S89  397083.6283096094 2181324.8788811197
S89  397083.6283096094 2181323.8940811194
S89 397085.59790961025 2181323.8940811194
S89 397085.59790961025 2181321.9245811193
S89  397087.5674096101 2181321.9245811193
S89  397087.5674096101  2181320.939781119
S89  397087.5674096101  2181319.954981119
S89 397088.88050961023  2181319.954981121
S89  397090.1935096093  2181319.954981119
S89 397091.50660960947  2181319.954981119
S89 397091.50660960947  2181317.985481119
S89  397093.4761096093  2181317.985481119
S89  397093.4761096093  2181317.000681121
S89  397093.4761096093   2181316.01588112
S89  397095.4457096101   2181316.01588112
S89  397095.4457096101   2181315.03108112
S89  397095.4457096079 2181314.0462811193
S89  397096.7587096092 2181314.0462811193
S89 397098.07180960936 2181314.0462811193
S89  397099.3848096107 2181314.0462811193
S89  397099.3848096085   2181313.06158112
S89  397099.3848096085 2181312.0767811197
S89 397101.35440960934 2181312.0767811197
S89 397101.35440960934  2181310.107181119
S89  397102.3391096087  2181310.107181119
S89  397103.3239096091  2181310.107181119
S89  397103.3239096091 2181309.1223811186
S89  397103.3239096091  2181308.137681119
S89 397105.29350960994  2181308.137681119
S89  397107.2630096098  2181308.137681119
S89  397109.2326096106  2181308.137681119
S89  397109.2326096106 2181306.1680811183
S89  397110.5456096097 2181306.1680811183
S89 397111.85870960983 2181306.1680811183
S89   397113.171709609 2181306.1680811206
S89  397113.1717096112   2181305.18328112
S89   397113.171709609 2181304.1984811197
S89  397114.6489096085 2181304.1984811197
S89  397116.1260096092 2181304.1984811197
S89  397117.6032096087 2181304.1984811197
S89  397119.0804096082 2181304.1984811197
S89  397119.0804096082 2181303.2137811203
S89  397119.0804096104   2181302.22898112
S89 397121.04990961024   2181302.22898112
S89  397123.0195096088   2181302.22898112
S89 397124.98910961184   2181302.22898112
S89  397124.9891096096  2181300.259381119
S89 397126.46620961034  2181300.259381119
S89 397127.94340960984  2181300.259381119
S89 397129.42060960934  2181300.259381119
S89 397130.89770961006  2181300.259381119
S89 397130.89770961006 2181299.2745811185
S89 397130.89770961006  2181298.289881119
S89 397132.37490960956  2181298.289881119
S89 397133.85210960906  2181298.289881119
S89 397135.32930960855  2181298.289881119
S89  397136.8064096093  2181298.289881119
S89  397136.8064096093  2181297.305081119
S89  397136.8064096093 2181296.3202811205
S89   397138.283609611 2181296.3202811186
S89 397139.76080961054 2181296.3202811186
S89   397141.237909609 2181296.3202811186
S89  397142.7151096085 2181296.3202811186
S89 397142.71510961076 2181294.3506811196
S89  397144.6847096093 2181294.3506811196
S89 397146.65420960914 2181294.3506811196
S89 397146.65420960914 2181293.3659811206
S89 397146.65420960914   2181292.38118112
S89 397148.13140960864   2181292.38118112
S89 397149.60860961035   2181292.38118112
S89 397151.08570960886   2181292.38118112
S89 397152.56290960836   2181292.38118112
S89 397152.56290960836 2181291.3963811197
S89 397152.56290961057  2181290.411581119
S89 397154.04010961007  2181290.411581119
S89  397155.5172096086  2181290.411581119
S89  397156.9944096103  2181290.411581119
S89  397158.4716096098  2181290.411581119
S89  397158.4716096098 2181288.4420811194
S89  397160.4411096096 2181288.4420811194
S89 397162.41070961044 2181288.4420811194
S89   397164.380309609 2181288.4420811194
S89   397164.380309609 2181287.4572811187
S89   397164.380309609  2181286.472481121
S89  397165.8574096097  2181286.472481121
S89  397167.3346096092 2181286.4724811185
S89  397168.8118096087 2181286.4724811185
S89 397170.28890960943  2181286.472481121
S89 397170.28890960943 2181285.4876811183
S89 397170.28890960943  2181284.502981119
S89  397171.6020096096  2181284.502981119
S89  397172.9150096087  2181284.502981119
S89 397174.22810960887  2181284.502981119
S89 397174.22810960887  2181283.518181118
S89 397174.22810960887 2181282.5333811203
S89  397175.7052096096 2181282.5333811203
S89  397177.1824096113 2181282.5333811203
S89  397178.6596096108 2181282.5333811203
S89  397180.1367096093 2181282.5333811203
S89  397180.1367096093 2181280.5637811194
S89  397181.6139096088 2181280.5637811194
S89  397183.0911096083 2181280.5637811194
S89   397184.568209609 2181280.5637811194
S89  397186.0454096107 2181280.5637811194
S89  397186.0454096085   2181279.57908112
S89  397186.0454096085 2181278.5942811193
S89  397187.5226096102 2181278.5942811193
S89  397188.9998096097 2181278.5942811193
S89 397190.47690961044 2181278.5942811193
S89 397191.95410960994 2181278.5942811193
S89 397191.95410960994  2181276.624681119
S89 397193.92370961077  2181276.624681119
S89 397195.89320960833  2181276.624681119
S89 397197.86280960916  2181276.624681119
S89 397197.86280960916  2181275.639881118
S89 397197.86280960916 2181274.6551811188
S89  397199.1758096083 2181274.6551811188
S89 397200.48890961066 2181274.6551811188
S89  397201.8019096098 2181274.6551811188
S89  397201.8019096098  2181273.670381121
S89  397201.8019096098   2181272.68558112
S89  397203.2791096093   2181272.68558112
S89 397204.75620961003  2181272.685581118
S89 397206.23340960953   2181272.68558112
S89   397207.710609609   2181272.68558112
S89 397207.71060961124 2181270.7159811193
S89  397209.6801096088 2181270.7159811193
S89  397211.6497096096 2181270.7159811193
S89 397213.61930961045 2181270.7159811193
S89 397213.61930961045   2181269.73128112
S89 397213.61930960824 2181268.7464811197
S89 397215.09640960896 2181268.7464811197
S89 397216.57360960846 2181268.7464811197
S89 397218.05080960796 2181268.7464811197
S89  397219.5279096109 2181268.7464811197
S89  397219.5279096109 2181267.7616811194
S89  397219.5279096087  2181266.776881119
S89  397221.0051096104  2181266.776881119
S89  397222.4823096099  2181266.776881119
S89  397223.9594096084  2181266.776881119
S89  397225.4366096101  2181266.776881119
S89  397225.4366096101  2181264.807381119
S89 397226.74970960803  2181264.807381119
S89  397228.0627096094  2181264.807381119
S89  397229.3757096085  2181264.807381119
S89  397229.3757096107 2181263.8225811184
S89  397229.3757096085  2181262.837781118
S89  397231.3453096093  2181262.837781118
S89 397233.31490961014  2181262.837781118
S89    397235.28440961  2181262.837781118
S89    397235.28440961 2181260.8681811197
S89  397236.7616096095 2181260.8681811197
S89  397238.2388096112 2181260.8681811197
S89  397239.7159096097 2181260.8681811197
S89  397241.1931096092 2181260.8681811197
S89  397241.1931096092   2181259.88348112
S89  397241.1931096092 2181258.8986811177
S89  397242.6703096109   2181258.89868112
S89  397244.1474096094 2181258.8986811177
S89  397245.6246096089   2181258.89868112
S89  397247.1018096084   2181258.89868112
S89  397247.1018096106 2181257.9138811193
S89  397247.1018096084  2181256.929081119
S89  397249.0713096104  2181256.929081119
S89   397251.040909609  2181256.929081119
S89 397253.01040960883  2181256.929081119
S89 397253.01040961104  2181254.959581119
S89  397254.3235096112  2181254.959581119
S89  397255.6365096103  2181254.959581119
S89  397256.9496096082  2181254.959581119
S89  397256.9496096105  2181253.974781119
S89  397256.9496096082 2181252.9899811205
S89 397258.42670960893 2181252.9899811186
S89 397259.90390961064 2181252.9899811186
S89  397261.3811096102 2181252.9899811186
S89 397262.85820960865 2181252.9899811205
S89 397262.85820960865 2181252.0051811202
S89 397262.85820960865 2181251.0203811196
S89 397264.33540961036 2181251.0203811196
S89  397265.8126096099 2181251.0203811196
S89  397267.2898096094 2181251.0203811196
S89 397268.76690960786 2181251.0203811196
S89 397268.76690961013 2181250.0356811183
S89 397268.76690961013   2181249.05088112
S89 397270.24410960963   2181249.05088112
S89  397271.7213096091   2181249.05088112
S89 397273.19840960985   2181249.05088112
S89 397274.67560961156   2181249.05088112
S89 397274.67560960934  2181247.081281119
S89 397276.15280961106  2181247.081281119
S89 397277.62990960956  2181247.081281119
S89 397279.10710960906  2181247.081281119
S89  397280.5843096108  2181247.081281119
S89  397280.5843096108  2181246.096481119
S89  397280.5843096108 2181245.1117811194
S89 397282.55380960833 2181245.1117811194
S89 397284.52340960695 2181245.1117811194
S89    397286.49300961 2181245.1117811194
S89    397286.49300961 2181243.1421811185
S89 397287.80600960914  2181243.142181121
S89  397289.1190096082 2181243.1421811185
S89  397290.4321096084  2181243.142181121
S89  397290.4321096106 2181242.1573811183
S89  397290.4321096106   2181241.17258112
S89  397292.4016096104   2181241.17258112
S89 397294.37120960903   2181241.17258112
S89 397296.34080960986   2181241.17258112
S89 397296.34080960986 2181240.1878811205
S89 397296.34080960986 2181239.2030811203
S89  397297.8179096105  2181239.203081118
S89  397299.2951096101  2181239.203081118
S89  397300.7723096096 2181239.2030811203
S89 397302.24940961023 2181239.2030811203
S89 397302.24940961023 2181238.2182811196
S89 397302.24940961023 2181237.2334811194
S89  397303.7266096075 2181237.2334811194
S89  397305.2038096093 2181237.2334811194
S89  397306.6810096088 2181237.2334811194
S89  397308.1581096095 2181237.2334811194
S89  397308.1581096095 2181235.2639811197
S89   397309.635309609 2181235.2639811197
S89  397311.1125096107 2181235.2639811197
S89  397312.5896096092 2181235.2639811197
S89  397314.0668096087 2181235.2639811197
S89  397314.0668096087  2181234.279181119
S89  397314.0668096087  2181233.294381119
S89    397315.37980961  2181233.294381119
S89  397316.6929096102  2181233.294381119
S89  397318.0059096093  2181233.294381119
S89  397318.0059096093 2181231.3247811203
S89 397319.97550961014 2181231.3247811203
S89  397321.9450096099  2181231.324781118
S89 397323.91460960853  2181231.324781118
S89 397323.91460960853 2181230.3400811185
S89 397323.91460961074 2181229.3552811183
S89 397325.39180961024   2181229.35528112
S89 397326.86890960875   2181229.35528112
S89 397328.34610960825   2181229.35528112
S89    397329.82330961   2181229.35528112
S89    397329.82330961   2181228.37048112
S89    397329.82330961 2181227.3856811193
S89  397331.7928096098 2181227.3856811193
S89  397333.7624096084 2181227.3856811193
S89 397335.73200960923 2181227.3856811193
S89   397335.732009607 2181225.4161811196
S89  397337.2091096099 2181225.4161811196
S89 397338.68630960945 2181225.4161811196
S89 397340.16350960894 2181225.4161811196
S89 397341.64060960966 2181225.4161811196
S89 397341.64060960966 2181224.4313811194
S89 397341.64060960966 2181223.4465811187
S89  397343.6102096082 2181223.4465811187
S89 397345.57980960904 2181223.4465811187
S89 397345.57980960904 2181222.4617811185
S89 397345.57980960683   2181221.47698112
S89 397347.05690960976   2181221.47698112
S89 397348.53410960926  2181221.476981118
S89 397350.01130960876  2181221.476981118
S89  397351.4884096095   2181221.47698112
S89  397351.4884096095  2181219.507481118
S89  397352.9656096112  2181219.507481118
S89  397354.4428096085  2181219.507481118
S89  397355.9199096092  2181219.507481118
S89  397357.3971096109  2181219.507481118
S89  397357.3971096087  2181218.522681118
S89  397357.3971096087 2181217.5378811196
S89  397358.8743096082 2181217.5378811196
S89 397360.35150960996 2181217.5378811196
S89  397361.8286096106 2181217.5378811196
S89  397363.3058096101 2181217.5378811196
S89  397363.3058096101   2181215.56838112
S89  397364.7830096097   2181215.56838112
S89 397366.26010961033   2181215.56838112
S89 397367.73730960983   2181215.56838112
S89  397369.2145096094 2181215.5683811177
S89  397369.2145096094 2181214.5835811193
S89  397369.2145096094  2181213.598781119
S89 397371.18400960916  2181213.598781119
S89    397373.15360961  2181213.598781119
S89    397373.15360961 2181212.6139811208
S89    397373.15360961  2181211.629181118
S89  397374.6308096095 2181211.6291811205
S89  397376.1079096102  2181211.629181118
S89  397377.5851096097  2181211.629181118
S89  397379.0623096092  2181211.629181118
S89  397379.0623096092  2181210.644481119
S89  397379.0623096092 2181209.6596811186
S89 397381.03180960903 2181209.6596811186
S89  397383.0014096098 2181209.6596811204
S89  397384.9710096084 2181209.6596811186
S89  397384.9710096106 2181207.6900811177
S89 397386.44810960913 2181207.6900811177
S89 397387.92530961084   2181207.69008112
S89 397389.40250960813   2181207.69008112
S89 397390.87960961106   2181207.69008112
S89 397390.87960961106 2181206.7052811193
S89 397390.87960960885   2181205.72058112
S89 397392.35680960835   2181205.72058112
S89 397393.83400961006   2181205.72058112
S89  397395.3111096108   2181205.72058112
S89  397396.7883096103   2181205.72058112
S89  397396.7883096103 2181204.7357811197
S89  397396.7883096103  2181203.750981119
S89  397398.1013096094  2181203.750981119
S89 397399.41440960957  2181203.750981119
S89  397400.7274096087  2181203.750981119
S89  397400.7274096087 2181201.7813811204
S89  397402.2046096082 2181201.7813811204
S89 397403.68180960993 2181201.7813811204
S89 397405.15890960844 2181201.7813811204
S89 397406.63610961015 2181201.7813811204
S89 397406.63610961015  2181200.796681119
S89 397406.63610961015  2181199.811881121
S89 397408.60570960876 2181199.8118811185
S89 397410.57520960853 2181199.8118811185
S89 397412.54480960936 2181199.8118811185
S89 397412.54480960936 2181198.8270811182
S89 397412.54480960936   2181197.84228112
S89  397414.0220096111   2181197.84228112
S89  397415.4991096096   2181197.84228112
S89  397416.9763096091 2181197.8422811176
S89  397418.4535096108   2181197.84228112
S89  397418.4535096086 2181195.8727811202
S89  397419.9306096093 2181195.8727811202
S89  397421.4078096088 2181195.8727811202
S89  397422.8850096105 2181195.8727811202
S89   397424.362109609 2181195.8727811202
S89   397424.362109609 2181194.8879811196
S89   397424.362109609 2181193.9031811194
S89 397426.33170960983 2181193.9031811194
S89 397428.30130961066 2181193.9031811194
S89 397430.27080961043 2181193.9031811194
S89 397430.27080961043  2181192.918381119
S89  397430.2708096082  2181191.933581121
S89 397431.58390960837 2181191.9335811185
S89  397432.8969096097 2181191.9335811185
S89  397434.2099096089 2181191.9335811185
S89  397434.2099096111  2181189.964081119
S89  397435.6871096084  2181189.964081119
S89  397437.1643096101  2181189.964081119
S89  397438.6415096074  2181189.964081119
S89  397440.1186096103  2181189.964081119
S89  397440.1186096103  2181188.979281118
S89  397440.1186096081 2181187.9944811203
S89  397441.5958096098 2181187.9944811203
S89  397443.0730096093 2181187.9944811203
S89    397444.55010961 2181187.9944811203
S89 397446.02730961173 2181187.9944811203
S89  397446.0273096095   2181186.02498112
S89   397447.504509609   2181186.02498112
S89 397448.98160960973 2181186.0249811183
S89 397450.45880960923   2181186.02498112
S89 397451.93600960873   2181186.02498112
S89 397451.93600960873   2181185.04018112
S89 397451.93600960873 2181184.0553811193
S89 397453.41320961044 2181184.0553811193
S89 397454.89030961116 2181184.0553811193
S89 397456.36750961066 2181184.0553811193
S89 397457.84470961016 2181184.0553811193
S89 397457.84470961016  2181183.070581119
S89 397457.84470960795  2181182.085781119
S89  397459.8142096122  2181182.085781119
S89  397461.7838096086  2181182.085781119
S89  397461.7838096086 2181180.1162811187
S89  397463.7533096106 2181180.1162811187
S89  397465.7229096092 2181180.1162811187
S89 397467.69250961003 2181180.1162811187
S89 397467.69250961003 2181179.1314811185
S89 397467.69250961003   2181178.14668112
S89 397469.16960960854   2181178.14668112
S89 397470.64680961025  2181178.146681118
S89 397472.12400960975  2181178.146681118
S89 397473.60110960825   2181178.14668112
S89 397473.60110960825   2181177.16188112
S89 397473.60110960825  2181176.177181118
S89 397475.07830960996 2181176.1771811205
S89  397476.5555096117 2181176.1771811205
S89  397478.0326096102 2181176.1771811205
S89  397479.5098096097  2181176.177181118
S89  397479.5098096097 2181174.2075811196
S89  397480.9870096092 2181174.2075811196
S89  397482.4642096087 2181174.2075811196
S89  397483.9413096116 2181174.2075811196
S89  397485.4185096089 2181174.2075811196
S89  397485.4185096089 2181173.2227811194
S89  397485.4185096089 2181172.2379811187
S89  397486.8957096084 2181172.2379811187
S89  397488.3728096091 2181172.2379811187
S89  397489.8500096086 2181172.2379811187
S89  397491.3272096103 2181172.2379811187
S89  397491.3272096103 2181171.2532811193
S89  397491.3272096103  2181170.268481119
S89 397492.80430961103  2181170.268481119
S89 397494.28150961053  2181170.268481119
S89 397495.75870961003  2181170.268481119
S89  397497.2359096096  2181170.268481119
S89  397497.2359096096  2181168.298881118
S89 397498.71300960804  2181168.298881118
S89 397500.19020960975  2181168.298881118
S89  397501.6674096093  2181168.298881118
S89 397503.14450960775  2181168.298881118
S89 397503.14450960996   2181167.31408112
S89 397503.14450960996 2181166.3293811185
S89 397504.62170960946 2181166.3293811204
S89   397506.098909609 2181166.3293811185
S89  397507.5760096097 2181166.3293811185
S89  397509.0532096092 2181166.3293811185
S89  397509.0532096092   2181165.34458112
S89  397509.0532096092   2181164.35978112
S89 397510.53040961095   2181164.35978112
S89 397512.00760961045 2181164.3597811176
S89 397513.48470960895   2181164.35978112
S89 397514.96190960845   2181164.35978112
S89 397514.96190961066  2181162.390181119
S89  397516.9315096093  2181162.390181119
S89 397518.90100960905  2181162.390181119
S89  397520.8706096099  2181162.390181119
S89  397520.8706096099 2181161.4054811196
S89  397520.8706096099  2181160.420681119
S89  397522.3477096106  2181160.420681119
S89  397523.8249096101  2181160.420681119
S89  397525.3021096096  2181160.420681119
S89  397526.7792096103  2181160.420681119
S89  397526.7792096081 2181159.4358811188
S89  397526.7792096081 2181158.4510811204
S89  397528.7488096089 2181158.4510811185
S89  397530.7184096097 2181158.4510811204
S89  397530.7184096097 2181156.4815811208
S89  397532.1955096082 2181156.4815811184
S89  397533.6727096099 2181156.4815811184
S89  397535.1499096094 2181156.4815811184
S89  397536.6270096101 2181156.4815811184
S89  397536.6270096079  2181155.496781118
S89  397536.6270096101   2181154.51198112
S89  397538.1042096096   2181154.51198112
S89  397539.5814096091   2181154.51198112
S89  397541.0586096087   2181154.51198112
S89 397542.53570960934   2181154.51198112
S89 397542.53570960934 2181153.5271811197
S89  397542.5357096071  2181152.542381119
S89  397544.0129096111  2181152.542381119
S89  397545.4901096084  2181152.542381119
S89 397546.96720960905  2181152.542381119
S89  397548.4444096086  2181152.542381119
S89  397548.4444096086 2181150.5728811193
S89  397549.9216096103 2181150.5728811193
S89 397551.39870961104 2181150.5728811193
S89 397552.87590961054 2181150.5728811193
S89 397554.35310961003 2181150.5728811193
S89 397554.35310961225  2181149.588081119
S89 397554.35310961003 2181148.6032811184
S89  397556.3226096098 2181148.6032811184
S89  397558.2922096084  2181148.603281121
S89 397560.26180960925 2181148.6032811184
S89 397560.26180960925  2181147.618581119
S89 397560.26180960925  2181146.633781119
S89 397561.73890960997  2181146.633781119
S89 397563.21610960946  2181146.633781119
S89 397564.69330960896  2181146.633781119
S89  397566.1704096097  2181146.633781119
S89  397566.1704096097   2181144.66418112
S89  397568.1400096105   2181144.66418112
S89  397570.1096096091   2181144.66418112
S89  397572.0791096089   2181144.66418112
S89  397574.0487096097   2181144.66418112
S89  397576.0182096095   2181144.66418112
S89  397576.0182096095 2181143.6793811196
S89  397576.0182096095   2181142.69468112
S89  397577.6595096106   2181142.69468112
S89 397579.30080960947 2181142.6946811182
S89  397580.9421096083   2181142.69468112
S89  397582.5834096094   2181142.69468112
S89  397584.2247096083   2181142.69468112
S89 397585.86600960937 2181142.6946811182
S89 397585.86600960937 2181140.7250811197
S89  397587.8356096102 2181140.7250811197
S89  397589.8052096088 2181140.7250811197
S89  397591.7747096086 2181140.7250811197
S89  397593.7443096094 2181140.7250811197
S89  397595.7138096092 2181140.7250811197
S89  397595.7138096092  2181139.740281119
S89  397595.7138096092  2181138.755481119
S89  397597.3551096081  2181138.755481119
S89 397598.99640960916  2181138.755481119
S89  397600.6377096102  2181138.755481119
S89  397602.2790096091  2181138.755481119
S89  397603.9203096102  2181138.755481119
S89 397605.56160960905  2181138.755481119
S89 397605.56160960905 2181137.7707811194
S89 397605.56160960905 2181136.7859811187
S89 397607.24980961106 2181136.7859811187
S89  397608.9380096086 2181136.7859811187
S89  397610.6262096084 2181136.7859811187
S89 397612.31440961035 2181136.7859811187
S89 397614.00260961015 2181136.7859811187
S89 397615.69080960995 2181136.7859811187
S89  397617.3790096097 2181136.7859811187
S89  397617.3790096097 2181135.8011811185
S89  397617.3790096119   2181134.81638112
S89  397619.3486096105   2181134.81638112
S89 397621.31810961035   2181134.81638112
S89  397623.2877096089   2181134.81638112
S89 397625.25720960874   2181134.81638112
S89 397627.22680960956   2181134.81638112
S89 397627.22680960956  2181132.846881118
S89  397628.8681096084  2181132.846881118
S89 397630.50940961175  2181132.846881118
S89  397632.1507096084  2181132.846881118
S89 397633.79200960946  2181132.846881118
S89  397635.4333096105  2181132.846881118
S89  397637.0746096094  2181132.846881118
S89  397637.0746096094 2181131.8620811203
S89  397637.0746096094 2181130.8772811196
S89  397638.7159096105 2181130.8772811196
S89 397640.35720960936 2181130.8772811196
S89  397641.9985096104 2181130.8772811196
S89  397643.6398096093 2181130.8772811196
S89  397645.2811096104 2181130.8772811196
S89 397646.92240960925 2181130.8772811196
S89 397646.92240960925 2181128.9076811187
S89  397648.8920096101 2181128.9076811187
S89 397650.86150960985 2181128.9076811187
S89 397652.83110960847 2181128.9076811187
S89  397654.8006096083 2181128.9076811187
S89 397656.77020960907 2181128.9076811187
S89 397656.77020960907 2181127.9229811192
S89 397656.77020960907  2181126.938181119
S89  397658.4115096102  2181126.938181119
S89 397660.05280960904  2181126.938181119
S89  397661.6941096101  2181126.938181119
S89 397663.33540960896  2181126.938181119
S89  397664.9767096101  2181126.938181119
S89 397666.61800961115  2181126.938181119
S89 397666.61800960894  2181125.953381119
S89  397666.6180096067  2181124.968581118
S89   397668.587509611  2181124.968581118
S89 397670.55710960954  2181124.968581118
S89 397672.52670961036  2181124.968581118
S89  397674.4962096102  2181124.968581118
S89 397676.46580960875  2181124.968581118
S89 397676.46580960654   2181123.98378112
S89   397676.465809611 2181122.9990811185
S89  397678.1071096099 2181122.9990811185
S89  397679.7484096087  2181122.999081121
S89  397681.3897096098 2181122.9990811185
S89  397683.0310096109 2181122.9990811185
S89 397684.67230960977 2181122.9990811185
S89 397686.31360961084 2181122.9990811185
S89 397686.31360961084   2181121.02948112
S89 397688.28310961067   2181121.02948112
S89  397690.2527096092   2181121.02948112
S89 397692.22230960784   2181121.02948112
S89 397694.19180960767   2181121.02948112
S89 397696.16140960844   2181121.02948112
S89 397698.13090960827   2181121.02948112
S89 397698.13090960827 2181120.0446811193
S89 397698.13090960827  2181119.059881119
S89  397700.1005096113  2181119.059881119
S89  397702.0701096099  2181119.059881119
S89  397704.0396096097  2181119.059881119
S89  397706.0092096083  2181119.059881119
S89 397707.97870961035  2181119.059881119
S89 397707.97870961035 2181118.0751811196
S89 397707.97870961035 2181117.0903811194
S89  397709.8389096101 2181117.0903811194
S89  397711.6990096088 2181117.0903811194
S89  397713.5592096086 2181117.0903811194
S89 397715.41930960957 2181117.0903811194
S89 397717.27940961055 2181117.0903811194
S89  397719.1396096103 2181117.0903811194
S89  397720.9997096091 2181117.0903811194
S89 397722.85990961106 2181117.0903811194
S89 397724.72000961204 2181117.0903811194
S89 397726.58010960853 2181117.0903811194
S89 397728.44030961057 2181117.0903811194
S89  397730.3004096093 2181117.0903811194
S89 397732.16060960904 2181117.0903811194
S89    397734.02070961 2181117.0903811194
S89   397735.880809611 2181117.0903811194
S89 397737.74100961076 2181117.0903811194
S89 397739.60110960953 2181117.0903811194
S89  397741.4613096093 2181117.0903811194
S89  397741.4613096093 2181115.1207811204
S89  397743.3323096104 2181115.1207811185
S89  397745.2034096103 2181115.1207811204
S89  397747.0745096102 2181115.1207811185
S89  397748.9456096101 2181115.1207811204
S89 397750.81670961005 2181115.1207811185
S89 397752.68770960893 2181115.1207811185
S89  397754.5588096111 2181115.1207811185
S89 397756.42990960873 2181115.1207811185
S89 397758.30100960867 2181115.1207811185
S89 397760.17210960854 2181115.1207811185
S89 397762.04320960847 2181115.1207811185
S89 397763.91420961183 2181115.1207811185
S89  397765.7853096095 2181115.1207811185
S89  397767.6564096094 2181115.1207811185
S89  397769.5275096093 2181115.1207811185
S89  397771.3986096092 2181115.1207811185
S89  397773.2696096103 2181115.1207811185
S89 397775.14070961025 2181115.1207811185
S89  397777.0118096102 2181115.1207811185
S89 397778.88290961005 2181115.1207811185
S89 397778.88290961005   2181114.13598112
S89 397778.88290960784 2181113.1512811184
S89    397780.75400961 2181113.1512811184
S89 397782.62510960986 2181113.1512811184
S89   397784.496109611 2181113.1512811184
S89 397786.36720960867 2181113.1512811184
S89  397788.2383096086 2181113.1512811184
S89 397790.10940961074 2181113.1512811184
S89  397791.9805096084 2181113.1512811184
S89  397793.8515096095 2181113.1512811184
S89  397795.7226096094 2181113.1512811184
S89 397797.59370960935 2181113.1512811184
S89  397799.4648096092 2181113.1512811184
S89 397801.33590960916 2181113.1512811184
S89  397803.2070096113 2181113.1512811184
S89  397805.0780096102 2181113.1512811184
S89  397806.9491096101 2181113.1512811184
S89    397808.82020961 2181113.1512811184
S89  397810.6913096077 2181113.1512811184
S89 397812.56240960985 2181113.1512811184
S89  397814.4334096087 2181113.1512811184
S89  397816.3045096086 2181113.1512811184
S89  397816.3045096108   2181111.18168112
S89  397818.2741096094   2181111.18168112
S89 397820.24360960926   2181111.18168112
S89  397822.2132096101   2181111.18168112
S89  397824.1828096109   2181111.18168112
S89  397826.1523096107   2181111.18168112
S89  397828.1219096093   2181111.18168112
S89  397830.0914096091   2181111.18168112
S89  397832.0610096099   2181111.18168112
S89  397834.0306096107   2181111.18168112
S89 397836.00010961056   2181111.18168112
S89  397837.9697096091   2181111.18168112
S89 397839.93920960894   2181111.18168112
S89 397841.90880960977   2181111.18168112
S89  397843.8784096106   2181111.18168112
S89 397845.84790960816   2181111.18168112
S89   397847.817509609   2181111.18168112
S89 397849.78700961097   2181111.18168112
S89  397851.7566096118   2181111.18168112
S89  397853.7262096082   2181111.18168112
S89  397853.7262096104 2181110.1968811196
S89  397853.7262096104  2181109.212081119
S89  397855.6439096104  2181109.212081119
S89  397857.5616096082  2181109.212081119
S89  397859.4793096104  2181109.212081119
S89 397861.39710960916  2181109.212081119
S89 397863.31480960915  2181109.212081119
S89 397865.23250960914  2181109.212081119
S89  397867.1503096101  2181109.212081119
S89  397869.0680096101  2181109.212081119
S89  397870.9857096101  2181109.212081119
S89  397872.9035096111  2181109.212081119
S89 397874.82120960887  2181109.212081119
S89 397876.73890960886  2181109.212081119
S89 397878.65660961106  2181109.212081119
S89 397880.57440960984  2181109.212081119
S89  397882.4921096098  2181109.212081119
S89  397884.4098096098  2181109.212081119
S89  397886.3276096086  2181109.212081119
S89  397888.2453096108  2181109.212081119
S89  397890.1630096108  2181109.212081119
S89  397892.0807096108  2181109.212081119
S89 397893.99850960734  2181109.212081119
S89 397895.91620960954  2181109.212081119
S89 397897.83390960953  2181109.212081119
S89  397899.7517096105  2181109.212081119
S89   397899.833873362  2181109.212081119
S90  395945.4898827678 2180385.6828904436
S90 395920.45101400575 2180894.2962566917
S90 396319.15752785606  2181383.262635215
S90  396696.6753853436 2181603.6747780773
S90  395945.4898827678 2180385.6828904436
S91  397005.2758817205  2181382.980881118
S91 396987.08038768603  2181357.099433546
S91 396935.86912288656 2181332.4358473383
S91  396924.6819290923   2181442.06768112
S91  396926.0635096097   2181442.06768112
S91  396926.0635096097  2181441.082881119
S91  396926.0635096097 2181440.0981811197
S91  396927.0483096101 2181440.0981811197
S91 396928.03310961055 2181440.0981811197
S91 396928.03310961055 2181438.1285811192
S91  396930.0027096091 2181438.1285811192
S91 396931.97220960894 2181438.1285811192
S91 396931.97220961115  2181437.143781121
S91 396931.97220960894 2181436.1589811207
S91  396932.9570096093 2181436.1589811184
S91 396933.94180960977 2181436.1589811184
S91 396933.94180960977  2181435.174281119
S91 396933.94180960977  2181434.189481118
S91 396935.91130960954  2181434.189481118
S91 396935.91130960954 2181433.2046811203
S91 396935.91130961175 2181432.2198811197
S91  396937.2244096097 2181432.2198811197
S91 396938.53740960883 2181432.2198811197
S91   396939.850509609 2181432.2198811197
S91   396939.850509609   2181430.25038112
S91   396941.820009611   2181430.25038112
S91 396941.82000960875   2181429.26558112
S91 396941.82000960875  2181428.280781119
S91  396943.1331096089  2181428.280781119
S91 396944.44610961026  2181428.280781119
S91  396945.7591096094  2181428.280781119
S91  396945.7591096094 2181426.3111811182
S91   396947.728709608 2181426.3111811182
S91   396947.728709608  2181425.326481119
S91 396947.72870961024 2181424.3416811186
S91 396949.69830960885 2181424.3416811186
S91 396949.69830960885 2181423.3568811202
S91 396949.69830961106   2181422.37208112
S91 396951.01130960794   2181422.37208112
S91  396952.3243096093   2181422.37208112
S91 396953.63740960945   2181422.37208112
S91 396953.63740960945 2181420.4025811204
S91  396955.6069096092 2181420.4025811204
S91  396955.6069096092 2181419.4177811197
S91  396955.6069096092 2181418.4329811195
S91  396956.5917096119 2181418.4329811195
S91 396957.57650960784 2181418.4329811195
S91 396957.57650961005  2181417.448181119
S91 396957.57650961005 2181416.4634811194
S91 396959.54610960867 2181416.4634811194
S91 396961.51560960844 2181416.4634811194
S91  396961.5156096107  2181415.478681119
S91  396961.5156096107  2181414.493881119
S91 396963.48520960927  2181414.493881119
S91 396963.48520960927   2181412.52428112
S91  396964.4700096097   2181412.52428112
S91  396965.4547096091   2181412.52428112
S91  396965.4547096091 2181411.5395811186
S91  396965.4547096091 2181410.5547811203
S91  396967.4243096099 2181410.5547811203
S91 396969.39390961075 2181410.5547811203
S91 396969.39390960854 2181408.5851811194
S91 396970.37860961014 2181408.5851811194
S91  396971.3634096105 2181408.5851811194
S91  396971.3634096105  2181407.600381119
S91  396971.3634096105 2181406.6156811197
S91 396973.33300961135 2181406.6156811197
S91 396973.33300960914  2181404.646081119
S91  396974.6460096083  2181404.646081119
S91 396975.95910961065  2181404.646081119
S91 396977.27210960974  2181404.646081119
S91 396977.27210960974 2181403.6612811186
S91 396977.27210960974 2181402.6764811203
S91 396979.24160960957 2181402.6764811203
S91 396979.24160960957 2181400.7069811183
S91  396981.2112096082 2181400.7069811183
S91  396981.2112096104   2181399.72218112
S91  396981.2112096104 2181398.7373811197
S91  396982.5242096095 2181398.7373811197
S91 396983.83730960963 2181398.7373811197
S91  396985.1503096088 2181398.7373811197
S91   396985.150309611 2181396.7678811178
S91  396987.1199096096   2181396.76788112
S91  396987.1199096096 2181395.7830811194
S91  396987.1199096096  2181394.798281119
S91    396988.10470961  2181394.798281119
S91  396989.0894096094  2181394.798281119
S91  396989.0894096094 2181392.8286811183
S91  396991.0590096102 2181392.8286811206
S91 396993.02860961104 2181392.8286811183
S91 396993.02860961104  2181391.843981119
S91  396993.0286096088  2181390.859181118
S91  396994.0133096104  2181390.859181118
S91 396994.99810961087  2181390.859181118
S91  396994.9981096086  2181389.874381118
S91 396994.99810961087 2181388.8895811196
S91  396996.9677096094 2181388.8895811196
S91 396998.93720960926 2181388.8895811196
S91 396998.93720960926 2181387.9047811194
S91 396998.93720960926   2181386.92008112
S91  397000.9068096101   2181386.92008112
S91  397000.9068096101  2181384.950481119
S91 397001.89160961047  2181384.950481119
S91 397002.87640960864  2181384.950481119
S91 397002.87640960864  2181383.965681119
S91 397002.87640960864  2181382.980881118
S91 397004.84590960847  2181382.980881118
S91  397005.2758817205  2181382.980881118
S92    398149.10081811 2183508.2973088375
S92  398136.5492518113  2183485.800885065
S92  398148.7294518127 2183452.6319850655
S92 398133.50295181206 2183425.3418850647
S92  398136.4582518114 2183388.5621850644
S92  398126.4326518101  2183370.592185066
S92  398131.4564518108  2183357.481785066
S92 398145.94135181105  2183345.002585066
S92  398147.0497518108 2183331.2012850656
S92  398146.0334518111 2183318.5499850647
S92  398161.4326518122 2183298.8868850656
S92  398176.0603518122 2183273.5157850645
S92  398191.5254518104  2183253.768485066
S92 398183.76355181175  2183232.631985064
S92  398191.5535518128 2183218.6695850655
S92  398156.8130588729 2183174.3106004014
S92 397513.90276484936  2183184.126568591
S92  396773.4579412016  2183467.115634217
S92  396686.0430400567 2183726.1675663646
S92  396685.5910509391 2183803.0943905097
S92  396690.0882430674 2183809.6853024047
S92 396882.29533497634  2183855.103036399
S92    398149.10081811 2183508.2973088375
S93 395819.48325043323  2182204.099311222
S93 395896.64625115844  2182076.892742884
S93 395885.45210480475 2182060.0014905627
S93 395861.46390480525  2182034.942490561
S93  395829.2369705852  2182007.694504948
S93  395762.1591485599  2182046.697394046
S93 395769.34556396445 2182050.6019413546
S93  395822.0552197251 2182065.1222050264
S93  395831.1058178715 2182082.7528202604
S93 395802.57310302777  2182119.571667918
S93 395806.49400146573 2182185.3553593243
S93 395817.00063634693  2182204.689657939
S93 395819.48325043323  2182204.099311222
S94  395982.8039046863 2182364.3533344055
S94 396003.74650468625 2182363.1055344054
S94 396010.21830468625 2182363.4910344053
S94 396010.21830468625 2182362.8368344055
S94 396010.21830468625 2182361.8520344053
S94 396012.18780468625 2182361.8520344053
S94 396014.15740468627 2182361.8520344053
S94 396014.15740468627  2182360.867234405
S94 396014.15740468627  2182359.882534405
S94  396015.4704046863  2182359.882534405
S94 396016.78350468626  2182359.882534405
S94  396018.0965046863  2182359.882534405
S94  396018.0965046863 2182357.9129344053
S94  396020.0661046863 2182357.9129344053
S94  396020.0661046863 2182356.9281344055
S94  396020.0661046863 2182355.9433344053
S94 396021.37910468626 2182355.9433344053
S94  396022.6921046863 2182355.9433344053
S94 396024.00520468625 2182355.9433344053
S94 396024.00520468625  2182353.973834405
S94 396025.97470468626  2182353.973834405
S94  396027.9443046863  2182353.973834405
S94  396027.9443046863 2182352.9890344054
S94  396027.9443046863 2182352.0042344052
S94  396029.2573046863 2182352.0042344052
S94 396030.57040468627 2182352.0042344052
S94  396031.8834046863 2182352.0042344052
S94  396031.8834046863 2182351.0194344055
S94  396031.8834046863  2182350.034734405
S94 396033.19650468626  2182350.034734405
S94  396034.5095046863  2182350.034734405
S94 396035.82250468625  2182350.034734405
S94 396035.82250468625 2182349.0499344054
S94 396035.82250468625  2182348.065134405
S94 396037.79210468626  2182348.065134405
S94 396037.79210468626  2182346.095534405
S94  396039.1051046863  2182346.095534405
S94 396040.41820468626  2182346.095534405
S94  396041.7312046863  2182346.095534405
S94  396041.7312046863 2182345.1108344053
S94  396041.7312046863 2182344.1260344055
S94 396043.39970468625 2182344.1260344055
S94  396043.7008046863 2182344.1260344055
S94  396045.6703046863 2182344.1260344055
S94  396045.6703046863  2182342.156434405
S94 396046.98340468627  2182342.156434405
S94  396048.2964046863  2182342.156434405
S94 396049.60950468626  2182342.156434405
S94 396049.60950468626 2182341.1716344054
S94 396049.60950468626 2182340.1869344055
S94  396050.9225046863 2182340.1869344055
S94 396052.23550468625 2182340.1869344055
S94  396053.5486046863 2182340.1869344055
S94  396053.5486046863 2182339.2021344053
S94  396053.5486046863 2182338.2173344055
S94  396055.5181046863 2182338.2173344055
S94  396055.5181046863 2182337.2325344053
S94  396055.5181046863  2182336.247734405
S94  396057.4877046863  2182336.247734405
S94 396059.45730468625  2182336.247734405
S94 396059.45730468625 2182334.2782344054
S94  396060.7703046863 2182334.2782344054
S94  396062.0833046863 2182334.2782344054
S94 396063.39640468627 2182334.2782344054
S94 396063.39640468627 2182333.2934344052
S94 396063.39640468627 2182332.3086344055
S94  396064.7094046863 2182332.3086344055
S94 396066.02250468626 2182332.3086344055
S94  396067.3355046863 2182332.3086344055
S94  396067.3355046863 2182331.3238344053
S94  396067.3355046863 2182330.3391344054
S94  396069.3051046863 2182330.3391344054
S94 396071.27460468624 2182330.3391344054
S94 396071.27460468624 2182328.3695344054
S94 396073.24420468626 2182328.3695344054
S94 396073.24420468626  2182327.415434405
S94 396045.15500468627 2182278.8175344053
S94 396023.49320468627 2182273.8585344055
S94  395966.7384046863 2182168.4384344053
S94  395922.2152046863 2182179.4650344052
S94 395927.26900468627 2182213.2336344053
S94  395936.6625046863  2182268.725734405
S94 395938.58480468625  2182277.860934405
S94 395947.38410468627 2182319.6762344055
S94 395950.47590468626 2182334.3689344055
S94 395969.89360468625 2182331.3253344055
S94  395982.8039046863 2182364.3533344055
S95   396568.227987812  2182774.933573528
S95 396496.92088781204 2182677.7747735283
S95   396438.518587812  2182598.199273528
S95   396437.612687812  2182598.199273528
S95   396437.612687812  2182600.168773528
S95   396435.643087812  2182600.168773528
S95   396435.643087812 2182601.1535735284
S95   396435.643087812  2182602.138373528
S95 396434.33008781204  2182602.138373528
S95   396433.017087812  2182602.138373528
S95 396431.70398781204  2182602.138373528
S95 396431.70398781204 2182603.1231735284
S95 396431.70398781204 2182604.1078735283
S95 396429.73448781203 2182604.1078735283
S95 396429.73448781203  2182605.092673528
S95 396429.73448781203  2182606.077473528
S95   396427.764887812  2182606.077473528
S95   396427.764887812  2182608.047073528
S95   396426.780087812  2182608.047073528
S95   396425.795387812  2182608.047073528
S95   396425.795387812  2182609.031773528
S95   396425.795387812 2182610.0165735283
S95   396423.825787812 2182610.0165735283
S95   396421.856187812 2182610.0165735283
S95   396421.856187812 2182611.9861735282
S95   396420.871487812 2182611.9861735282
S95   396419.886687812 2182611.9861735282
S95   396419.886687812  2182612.970973528
S95   396419.886687812 2182613.9556735284
S95 396417.91708781203 2182613.9556735284
S95 396417.91708781203 2182615.9252735283
S95   396415.947587812 2182615.9252735283
S95   396415.947587812  2182616.910073528
S95   396415.947587812 2182617.8948735283
S95   396414.634487812 2182617.8948735283
S95 396413.32148781203 2182617.8948735283
S95   396412.008387812 2182617.8948735283
S95   396412.008387812  2182618.879573528
S95   396412.008387812 2182619.8643735284
S95   396410.038887812 2182619.8643735284
S95   396410.038887812  2182620.849173528
S95   396410.038887812 2182621.8339735284
S95   396408.069287812 2182621.8339735284
S95   396408.069287812  2182623.803473528
S95   396407.084487812  2182623.803473528
S95 396406.09978781204  2182623.803473528
S95 396406.09978781204  2182624.788273528
S95 396406.09978781204  2182625.773073528
S95   396404.130187812  2182625.773073528
S95   396402.160587812  2182625.773073528
S95   396402.160587812 2182627.7426735284
S95 396401.17588781205 2182627.7426735284
S95   396400.191087812 2182627.7426735284
S95   396400.191087812 2182628.7273735283
S95   396400.191087812  2182629.712173528
S95   396398.221487812  2182629.712173528
S95   396396.251987812  2182629.712173528
S95   396396.251987812 2182630.6969735282
S95   396396.251987812  2182631.681773528
S95   396394.938887812  2182631.681773528
S95   396393.625887812  2182631.681773528
S95   396392.312787812  2182631.681773528
S95   396392.312787812  2182632.666573528
S95   396392.312787812  2182633.651273528
S95   396390.343287812  2182633.651273528
S95   396390.343287812  2182635.620873528
S95   396389.030187812  2182635.620873528
S95   396387.717187812  2182635.620873528
S95   396386.404187812  2182635.620873528
S95   396386.404187812 2182636.6056735283
S95   396386.404187812  2182637.590473528
S95   396384.434587812  2182637.590473528
S95 396382.46498781204  2182637.590473528
S95 396382.46498781204  2182639.559973528
S95   396381.151987812  2182639.559973528
S95   396379.838987812  2182639.559973528
S95   396378.525887812  2182639.559973528
S95   396378.525887812 2182640.5447735284
S95   396378.525887812  2182641.529573528
S95 396377.54108781205  2182641.529573528
S95   396376.556387812  2182641.529573528
S95   396376.556387812 2182642.5143735283
S95   396376.556387812  2182643.499073528
S95   396374.586787812  2182643.499073528
S95   396372.617187812  2182643.499073528
S95   396372.617187812  2182645.468673528
S95   396371.304187812  2182645.468673528
S95   396369.991187812  2182645.468673528
S95 396368.67808781203  2182645.468673528
S95 396368.67808781203 2182646.4534735284
S95 396368.67808781203  2182647.438273528
S95   396366.708587812  2182647.438273528
S95   396364.738987812  2182647.438273528
S95   396364.738987812  2182648.422973528
S95   396364.738987812 2182649.4077735282
S95 396363.75418781204 2182649.4077735282
S95   396363.422387812 2182649.4077735282
S95   396362.769387812 2182649.4077735282
S95   396362.769387812  2182650.392573528
S95   396362.769387812  2182650.830573528
S95   396362.769387812  2182651.377373528
S95   396362.518487812  2182651.377373528
S95   396360.799887812  2182651.377373528
S95   396358.830387812  2182651.377373528
S95   396358.830387812  2182653.346973528
S95   396357.517287812  2182653.346973528
S95   396356.204287812  2182653.346973528
S95   396354.891187812  2182653.346973528
S95   396354.891187812  2182654.331673528
S95   396354.891187812 2182655.3164735283
S95   396352.921687812 2182655.3164735283
S95   396350.952087812 2182655.3164735283
S95   396350.952087812  2182657.286073528
S95 396349.63908781204  2182657.286073528
S95   396348.325987812  2182657.286073528
S95   396347.012987812  2182657.286073528
S95   396347.012987812  2182658.270873528
S95   396347.012987812 2182659.2555735284
S95 396345.04338781204 2182659.2555735284
S95 396345.04338781204  2182660.240373528
S95 396345.04338781204 2182661.2251735283
S95   396343.730387812 2182661.2251735283
S95   396342.417387812 2182661.2251735283
S95   396341.104287812 2182661.2251735283
S95   396341.104287812  2182662.209973528
S95   396341.104287812 2182663.1947735283
S95   396339.791287812 2182663.1947735283
S95   396338.478187812 2182663.1947735283
S95   396337.165187812 2182663.1947735283
S95   396337.165187812 2182665.1642735284
S95   396335.195587812 2182665.1642735284
S95 396333.22608781204 2182665.1642735284
S95 396333.22608781204  2182666.149073528
S95 396333.22608781204 2182667.1338735283
S95   396332.241287812 2182667.1338735283
S95 396331.25648781203 2182667.1338735283
S95 396331.25648781203  2182669.103373528
S95   396329.286987812  2182669.103373528
S95   396327.317387812  2182669.103373528
S95   396327.317387812  2182670.088173528
S95   396327.317387812  2182671.072973528
S95   396326.004387812  2182671.072973528
S95   396324.691287812  2182671.072973528
S95   396323.378287812  2182671.072973528
S95   396323.378287812  2182672.057773528
S95   396323.378287812 2182673.0425735284
S95   396322.065187812 2182673.0425735284
S95   396320.752187812 2182673.0425735284
S95 396319.43918781204 2182673.0425735284
S95 396319.43918781204  2182675.012073528
S95   396317.469587812  2182675.012073528
S95   396317.469587812  2182675.996873528
S95   396317.469587812  2182676.981673528
S95   396315.992387812  2182676.981673528
S95 396314.51528781204  2182676.981673528
S95   396313.038087812  2182676.981673528
S95   396311.560887812  2182676.981673528
S95   396311.560887812  2182677.966473528
S95   396311.560887812  2182678.951173528
S95   396309.591387812  2182678.951173528
S95 396307.62178781204  2182678.951173528
S95 396307.62178781204  2182680.920773528
S95 396305.65228781203  2182680.920773528
S95   396303.682687812  2182680.920773528
S95   396301.713087812  2182680.920773528
S95   396301.713087812 2182681.9055735283
S95   396301.713087812  2182682.890373528
S95 396300.40008781204  2182682.890373528
S95   396299.087087812  2182682.890373528
S95   396297.773987812  2182682.890373528
S95   396297.773987812 2182683.8750735284
S95   396297.773987812  2182684.859873528
S95 396295.80448781204  2182684.859873528
S95 396293.83488781203  2182684.859873528
S95   396291.865287812  2182684.859873528
S95   396291.865287812  2182686.829473528
S95   396290.552287812  2182686.829473528
S95 396289.23928781203  2182686.829473528
S95   396287.926187812  2182686.829473528
S95   396287.926187812 2182687.8142735283
S95   396287.926187812  2182688.798973528
S95   396285.956687812  2182688.798973528
S95 396283.98708781204  2182688.798973528
S95 396282.01748781203  2182688.798973528
S95 396282.01748781203  2182690.768573528
S95   396280.704487812  2182690.768573528
S95 396279.39148781204  2182690.768573528
S95   396278.078387812  2182690.768573528
S95   396278.078387812 2182691.7533735284
S95   396278.078387812  2182692.738173528
S95   396276.601187812  2182692.738173528
S95 396275.12408781203  2182692.738173528
S95   396273.646887812  2182692.738173528
S95   396273.573687812  2182692.738173528
S95 396255.20398781204  2182752.733873528
S95   396209.939987812 2182900.5675735283
S95 396207.27998781204  2182909.255173528
S95   396208.817587812 2182946.6927735284
S95   396225.575987812 2182962.5280735283
S95 396273.31158781203 2183007.6341735283
S95   396274.340687812 2183007.9932735283
S95   396278.858787812 2182998.6368735284
S95 396449.02998781204  2182861.230473528
S95   396568.227987812  2182774.933573528
S96 396709.77320443274 2182967.7946261624
S96  396568.2280182915 2182774.9336188217
S96  396449.0299759049  2182861.230492534
S96 396278.85877590475  2182998.636892535
S96 396274.34072709986 2183007.9932703855
S96  396482.6174460899 2183080.6741085406
S96 396709.77320443274 2182967.7946261624
S97 396033.29599545425  2183004.889108833
S97  395997.9638532341 2182993.5701473854
S97 395970.37510000356 2183074.6967000007
S97  395978.5796999985 2183077.5494999983
S97 396013.45129239233  2183087.867485033
S97 396033.29599545425  2183004.889108833
S98  395267.2843097469 2182120.4452065574
S98  395242.0240917973   2182125.84241987
S98  395232.3933544909 2182104.8597538536
S98 395213.58445556526  2182080.588513623
S98  395223.1376782227  2182053.962537057
S98  395176.2465039048 2182051.1683476027
S98 395116.24650390504  2182054.743787059
S98  395096.1335888661 2182053.5450565936
S98  395084.3782177745 2182059.9329960425
S98   395071.105817872  2182053.841687454
S98  395052.5071850573 2182043.7354862816
S98   395016.387189943 2182038.1068241666
S98 395021.10581786995  2181998.560925734
S98   395026.387189943 2181993.8416874497
S98  395031.1058178721  2181988.560925734
S98 395046.10581786983 2181975.1588261253
S98  395037.1663037135   2181962.65882612
S98   395015.468495052 2181943.2726187403
S98  394908.4651470071 2182271.2528667087
S98  394983.6495080608  2182321.529754389
S98  395224.3839750762 2182400.6313360343
S98 395266.77819999814 2182133.6053000023
S98  395267.2843097469 2182120.4452065574
S99  396045.4851225249 2182822.3971249894
S99  396042.7727225249   2182804.95282499
S99  396038.0318225249 2182783.3378249896
S99 396037.22942252486 2182783.3378249896
S99  396035.5412225249 2182783.3378249896
S99  396033.8530225249 2182783.3378249896
S99  396033.8530225249 2182785.3074249895
S99  396031.8834225249 2182785.3074249895
S99  396029.9139225249 2182785.3074249895
S99  396027.9443225249 2182785.3074249895
S99  396025.9747225249 2182785.3074249895
S99 396024.00522252487 2182785.3074249895
S99 396024.00522252487 2182786.2922249897
S99 396024.00522252487 2182787.2770249895
S99  396022.3170225249 2182787.2770249895
S99  396020.6288225249 2182787.2770249895
S99  396018.9406225249 2182787.2770249895
S99  396017.2524225249 2182787.2770249895
S99  396015.5642225249 2182787.2770249895
S99  396013.8760225249 2182787.2770249895
S99 396012.18782252487 2182787.2770249895
S99 396012.18782252487 2182789.2465249896
S99  396010.5465225249 2182789.2465249896
S99  396008.9052225249 2182789.2465249896
S99  396007.2639225249 2182789.2465249896
S99  396005.6226225249 2182789.2465249896
S99  396003.9813225249 2182789.2465249896
S99  396002.3400225249 2182789.2465249896
S99  396002.3400225249 2182790.2313249893
S99  396002.3400225249 2182791.2161249896
S99 396000.37052252487 2182791.2161249896
S99  395998.4009225249 2182791.2161249896
S99  395996.4313225249 2182791.2161249896
S99  395994.4618225249 2182791.2161249896
S99  395992.4922225249 2182791.2161249896
S99  395990.5227225249 2182791.2161249896
S99  395990.5227225249   2182792.20092499
S99  395990.5227225249 2182793.1856249897
S99  395988.8345225249 2182793.1856249897
S99  395987.1463225249 2182793.1856249897
S99  395985.4581225249 2182793.1856249897
S99 395983.76992252487 2182793.1856249897
S99  395982.0817225249 2182793.1856249897
S99  395980.3935225249 2182793.1856249897
S99  395978.7053225249 2182793.1856249897
S99  395978.7053225249 2182795.1552249896
S99 395977.06402252486 2182795.1552249896
S99  395975.4227225249 2182795.1552249896
S99  395973.7814225249 2182795.1552249896
S99 395972.14012252487 2182795.1552249896
S99  395970.4988225249 2182795.1552249896
S99  395968.8575225249 2182795.1552249896
S99  395968.8575225249 2182796.1400249894
S99  395968.8575225249 2182797.1248249896
S99  395967.1693225249 2182797.1248249896
S99  395965.4811225249 2182797.1248249896
S99  395963.7929225249 2182797.1248249896
S99  395962.1047225249 2182797.1248249896
S99  395960.4165225249 2182797.1248249896
S99 395958.72832252487 2182797.1248249896
S99  395957.0401225249 2182797.1248249896
S99  395957.0401225249 2182798.1095249895
S99  395957.0401225249 2182799.0943249897
S99 395955.35202252486 2182799.0943249897
S99  395953.6638225249 2182799.0943249897
S99  395951.9756225249 2182799.0943249897
S99  395950.2874225249 2182799.0943249897
S99  395948.5992225249 2182799.0943249897
S99  395946.9110225249 2182799.0943249897
S99  395945.2228225249 2182799.0943249897
S99  395945.2228225249 2182801.0639249897
S99  395943.2532225249 2182801.0639249897
S99  395941.2837225249 2182801.0639249897
S99 395939.31412252487 2182801.0639249897
S99  395937.3445225249 2182801.0639249897
S99  395935.3750225249 2182801.0639249897
S99  395935.3750225249 2182802.0487249894
S99  395935.3750225249   2182803.03342499
S99  395933.6868225249   2182803.03342499
S99  395931.9986225249   2182803.03342499
S99 395930.31042252487   2182803.03342499
S99  395928.6222225249   2182803.03342499
S99  395926.9340225249   2182803.03342499
S99  395925.2458225249   2182803.03342499
S99  395923.5576225249   2182803.03342499
S99  395923.5576225249 2182805.0030249897
S99  395921.5881225249 2182805.0030249897
S99  395919.6185225249 2182805.0030249897
S99  395917.6490225249 2182805.0030249897
S99  395915.6794225249 2182805.0030249897
S99 395913.70982252486 2182805.0030249897
S99 395913.70982252486 2182805.9878249895
S99 395913.70982252486 2182806.9726249897
S99  395912.0216225249 2182806.9726249897
S99  395910.3334225249 2182806.9726249897
S99  395908.6453225249 2182806.9726249897
S99  395906.9571225249 2182806.9726249897
S99  395905.2689225249 2182806.9726249897
S99  395903.5807225249 2182806.9726249897
S99 395901.89252252487 2182806.9726249897
S99 395901.89252252487 2182807.9573249896
S99 395901.89252252487 2182808.6372249895
S99 395901.89252252487 2182808.9421249893
S99  395899.9229225249 2182808.9421249893
S99  395897.9534225249 2182808.9421249893
S99  395895.9838225249 2182808.9421249893
S99  395894.0142225249 2182808.9421249893
S99  395892.0447225249 2182808.9421249893
S99 395890.07512252487 2182808.9421249893
S99 395890.07512252487 2182809.9269249896
S99 395890.07512252487   2182810.91172499
S99  395888.4338225249   2182810.91172499
S99  395886.7925225249   2182810.91172499
S99  395885.1512225249   2182810.91172499
S99  395883.5099225249   2182810.91172499
S99  395881.8686225249   2182810.91172499
S99  395880.2273225249   2182810.91172499
S99  395880.2273225249 2182812.8812249894
S99  395878.5391225249 2182812.8812249894
S99 395876.85092252487 2182812.8812249894
S99  395875.1627225249 2182812.8812249894
S99 395873.47452252486 2182812.8812249894
S99  395871.7863225249 2182812.8812249894
S99  395870.0982225249 2182812.8812249894
S99  395868.4100225249 2182812.8812249894
S99  395868.4100225249 2182813.8660249896
S99  395868.4100225249 2182814.8508249894
S99  395866.4404225249 2182814.8508249894
S99  395864.4708225249 2182814.8508249894
S99  395862.5013225249 2182814.8508249894
S99  395860.5317225249 2182814.8508249894
S99  395858.5622225249 2182814.8508249894
S99  395856.5926225249 2182814.8508249894
S99  395856.5926225249 2182815.8356249896
S99  395856.5926225249   2182816.82042499
S99  395854.6230225249   2182816.82042499
S99 395852.65352252487   2182816.82042499
S99  395850.6839225249   2182816.82042499
S99  395848.7144225249   2182816.82042499
S99  395846.7448225249   2182816.82042499
S99  395844.7752225249   2182816.82042499
S99  395842.8057225249   2182816.82042499
S99  395842.8057225249 2182818.7899249895
S99 395840.83612252487 2182818.7899249895
S99  395838.8666225249 2182818.7899249895
S99  395836.8970225249 2182818.7899249895
S99  395834.9274225249 2182818.7899249895
S99  395832.9579225249 2182818.7899249895
S99  395830.9883225249 2182818.7899249895
S99  395829.0188225249 2182818.7899249895
S99  395827.0492225249 2182818.7899249895
S99  395827.0492225249 2182819.7747249897
S99  395827.0492225249 2182820.7595249894
S99  395825.3258225249 2182820.7595249894
S99 395823.99052252487 2182820.7595249894
S99  395916.7482225249 2182967.5520249894
S99  395997.9638225249 2182993.5701249894
S99  396017.1262225249   2182937.22202499
S99  396043.3707225249 2182855.2509249896
S99  396044.7709225249 2182850.8778249896
S99 396046.49672252487 2182834.0387249896
S99  396045.4851225249 2182822.3971249894
S100  396174.0086578569 2182898.2930145855
S100  396043.3707578569 2182855.2509145853
S100  396017.1261578569 2182937.2220145855
S100 395997.96385785687 2182993.5701145856
S100 396033.29595785687 2183004.8891145852
S100  396148.2649578569 2182987.1934145857
S100  396208.8175578569 2182946.6928145853
S100  396207.2800578569 2182909.2552145855
S100  396175.9467578569 2182898.9316145857
S100  396174.0086578569 2182898.2930145855
S101 395916.74825160357  2182967.551967706
S101  395823.9905516036  2182820.759467706
S101 395823.60245160357  2182820.759467706
S101  395821.8791516036  2182820.759467706
S101  395820.1557516036  2182820.759467706
S101  395818.4324516036  2182820.759467706
S101 395816.70905160357  2182820.759467706
S101  395814.9856516036  2182820.759467706
S101  395813.2623516036  2182820.759467706
S101  395813.2623516036  2182821.744267706
S101  395813.2623516036  2182822.729067706
S101  395811.2927516036  2182822.729067706
S101  395809.3231516036  2182822.729067706
S101 395807.35365160357  2182822.729067706
S101  395805.3840516036  2182822.729067706
S101  395803.4145516036  2182822.729067706
S101  395801.4449516036  2182822.729067706
S101  395799.4753516036  2182822.729067706
S101  395797.5058516036  2182822.729067706
S101  395797.5058516036  2182824.698667706
S101 395795.53625160357  2182824.698667706
S101 395793.56675160356  2182824.698667706
S101  395791.5971516036  2182824.698667706
S101  395789.6275516036  2182824.698667706
S101  395787.6580516036  2182824.698667706
S101  395785.6884516036  2182824.698667706
S101  395783.7189516036  2182824.698667706
S101 395781.74935160356  2182824.698667706
S101 395781.74935160356  2182825.683367706
S101 395781.74935160356  2182826.668167706
S101  395780.0259516036  2182826.668167706
S101  395779.6242516036  2182826.668167706
S101  395728.0769516036  2183006.491767706
S101  395789.3444516036 2183023.5639677057
S101  395898.2479516036  2183054.324167706
S101  395970.3750516036 2183074.6966677057
S101 395997.96385160356  2182993.570167706
S101 395916.74825160357  2182967.551967706
S102 395866.0773796166 2183168.9793530405
S102 395898.0344796166 2183055.3256530403
S102 395969.0028796166   2183079.26215304
S102 395970.3750796166   2183074.69665304
S102 395898.2479796166 2183054.3241530405
S102 395789.3444796166   2183023.56395304
S102 395728.0769796166 2183006.4917530403
S102 395695.2989796166 2183120.8381530405
S102 395718.7739796166   2183164.38025304
S102 395866.0773796166 2183168.9793530405
S103 396209.94001782284  2182900.567500565
S103  396255.2040178228  2182752.733900565
S103 396273.57371782284 2182692.7381005655
S103  396272.1697178228 2182692.7381005655
S103  396272.1697178228 2182693.7229005652
S103  396272.1697178228 2182694.7077005655
S103  396270.2001178228 2182694.7077005655
S103  396268.2306178228 2182694.7077005655
S103  396268.2306178228  2182695.692500565
S103  396268.2306178228 2182696.6772005656
S103 396266.26101782284 2182696.6772005656
S103  396264.2915178228 2182696.6772005656
S103  396262.3219178228 2182696.6772005656
S103  396262.3219178228 2182698.6468005655
S103  396261.0089178228 2182698.6468005655
S103  396259.6958178228 2182698.6468005655
S103  396258.3828178228 2182698.6468005655
S103  396258.3828178228 2182699.6316005653
S103  396258.3828178228 2182700.6164005655
S103  396256.4132178228 2182700.6164005655
S103 396254.44371782284 2182700.6164005655
S103  396252.4741178228 2182700.6164005655
S103  396252.4741178228 2182702.5859005656
S103  396251.1611178228 2182702.5859005656
S103 396249.84801782283 2182702.5859005656
S103  396248.5350178228 2182702.5859005656
S103  396248.5350178228 2182703.5707005654
S103  396248.5350178228 2182704.5555005656
S103  396247.0578178228 2182704.5555005656
S103  396245.5806178228 2182704.5555005656
S103  396244.1035178228 2182704.5555005656
S103 396242.62631782284 2182704.5555005656
S103 396242.62631782284 2182705.5403005653
S103 396242.62631782284  2182706.525000565
S103  396240.6567178228  2182706.525000565
S103  396238.6872178228  2182706.525000565
S103  396238.6872178228 2182707.5098005654
S103  396238.6872178228  2182708.494600565
S103  396237.2100178228  2182708.494600565
S103 396235.73291782284  2182708.494600565
S103  396234.2557178228  2182708.494600565
S103  396232.7785178228  2182708.494600565
S103  396232.7785178228 2182710.4642005656
S103  396231.4655178228 2182710.4642005656
S103  396230.1524178228 2182710.4642005656
S103 396228.83941782283 2182710.4642005656
S103 396228.83941782283 2182711.4489005655
S103 396228.83941782283 2182712.4337005652
S103  396227.3622178228 2182712.4337005652
S103  396225.8851178228 2182712.4337005652
S103  396224.4079178228 2182712.4337005652
S103  396222.9307178228 2182712.4337005652
S103  396222.9307178228  2182714.403300565
S103  396220.9612178228  2182714.403300565
S103  396218.9916178228  2182714.403300565
S103  396218.9916178228 2182715.3881005654
S103  396218.9916178228 2182716.3728005653
S103 396217.02201782283 2182716.3728005653
S103  396215.0525178228 2182716.3728005653
S103  396213.0829178228 2182716.3728005653
S103  396213.0829178228 2182717.3576005655
S103  396213.0829178228 2182718.3424005653
S103  396211.7699178228 2182718.3424005653
S103  396210.4568178228 2182718.3424005653
S103  396209.1438178228 2182718.3424005653
S103  396209.1438178228  2182720.312000565
S103 396207.66661782283  2182720.312000565
S103  396206.1895178228  2182720.312000565
S103  396204.7123178228  2182720.312000565
S103  396203.2351178228  2182720.312000565
S103  396203.2351178228 2182721.2967005656
S103  396203.2351178228 2182722.2815005654
S103  396201.9221178228 2182722.2815005654
S103 396200.60901782283 2182722.2815005654
S103  396199.2960178228 2182722.2815005654
S103  396199.2960178228 2182723.2663005656
S103  396199.2960178228 2182724.2511005653
S103  396197.3264178228 2182724.2511005653
S103  396195.3569178228 2182724.2511005653
S103 396193.38731782284 2182724.2511005653
S103 396193.38731782284 2182726.2206005654
S103  396192.0743178228 2182726.2206005654
S103 396190.76121782284 2182726.2206005654
S103  396189.4482178228 2182726.2206005654
S103  396189.4482178228  2182727.205400565
S103  396189.4482178228 2182728.1902005654
S103  396187.9710178228 2182728.1902005654
S103 396186.49391782284 2182728.1902005654
S103  396185.0167178228 2182728.1902005654
S103  396183.5395178228 2182728.1902005654
S103  396183.5395178228 2182729.1750005656
S103  396183.5395178228 2182730.1598005653
S103  396182.2265178228 2182730.1598005653
S103  396180.9134178228 2182730.1598005653
S103 396179.60041782283 2182730.1598005653
S103 396179.60041782283 2182732.1293005655
S103  396177.6308178228 2182732.1293005655
S103  396175.6613178228 2182732.1293005655
S103  396173.6917178228 2182732.1293005655
S103  396173.6917178228  2182733.114100565
S103  396173.6917178228 2182734.0989005654
S103 396172.37871782284 2182734.0989005654
S103  396171.0656178228 2182734.0989005654
S103 396169.75261782284 2182734.0989005654
S103 396169.75261782284 2182735.0837005656
S103 396169.75261782284 2182736.0684005655
S103  396168.2754178228 2182736.0684005655
S103  396166.7983178228 2182736.0684005655
S103 396165.32111782284 2182736.0684005655
S103  396163.8439178228 2182736.0684005655
S103  396163.8439178228 2182737.0532005653
S103  396163.8439178228 2182738.0380005655
S103  396162.5309178228 2182738.0380005655
S103  396161.2178178228 2182738.0380005655
S103  396159.9048178228 2182738.0380005655
S103  396159.9048178228 2182740.0076005654
S103 396158.42761782283 2182740.0076005654
S103  396156.9505178228 2182740.0076005654
S103  396155.4733178228 2182740.0076005654
S103  396153.9961178228 2182740.0076005654
S103  396153.9961178228 2182740.9923005654
S103  396153.9961178228 2182741.9771005656
S103  396152.0266178228 2182741.9771005656
S103  396150.0570178228 2182741.9771005656
S103  396150.0570178228 2182743.9467005655
S103 396148.57981782284 2182743.9467005655
S103  396147.1027178228 2182743.9467005655
S103  396145.6255178228 2182743.9467005655
S103 396144.14831782284 2182743.9467005655
S103 396144.14831782284 2182744.9315005653
S103 396144.14831782284  2182745.916200565
S103  396142.8353178228  2182745.916200565
S103 396141.52221782284  2182745.916200565
S103  396140.2092178228  2182745.916200565
S103  396140.2092178228 2182746.9010005654
S103  396140.2092178228 2182747.8858005656
S103  396138.7320178228 2182747.8858005656
S103 396137.25491782284 2182747.8858005656
S103  396135.7777178228 2182747.8858005656
S103  396134.3005178228 2182747.8858005656
S103  396134.3005178228 2182749.8554005655
S103 396132.33101782284 2182749.8554005655
S103 396130.36141782283 2182749.8554005655
S103 396130.36141782283 2182750.8401005655
S103 396130.36141782283  2182751.824900565
S103  396128.8842178228  2182751.824900565
S103  396127.4071178228  2182751.824900565
S103  396125.9299178228  2182751.824900565
S103  396124.4527178228  2182751.824900565
S103  396124.4527178228 2182752.8097005654
S103  396124.4527178228 2182753.7945005656
S103 396123.13971782284 2182753.7945005656
S103  396121.8266178228 2182753.7945005656
S103 396120.51361782284 2182753.7945005656
S103 396120.51361782284 2182755.7640005653
S103  396119.0364178228 2182755.7640005653
S103  396117.5593178228 2182755.7640005653
S103 396116.08211782284 2182755.7640005653
S103  396114.6049178228 2182755.7640005653
S103  396114.6049178228 2182756.7488005655
S103  396114.6049178228  2182757.733600565
S103  396113.2919178228  2182757.733600565
S103  396111.9788178228  2182757.733600565
S103  396110.6658178228  2182757.733600565
S103  396110.6658178228  2182759.703200565
S103 396108.69621782284  2182759.703200565
S103 396106.72671782284  2182759.703200565
S103  396104.7571178228  2182759.703200565
S103  396104.7571178228 2182760.6879005656
S103  396104.7571178228 2182761.6727005653
S103  396103.4441178228 2182761.6727005653
S103 396102.13101782283 2182761.6727005653
S103  396100.8180178228 2182761.6727005653
S103  396100.8180178228 2182762.6575005655
S103  396100.8180178228 2182763.6423005653
S103 396099.34081782284 2182763.6423005653
S103  396097.8637178228 2182763.6423005653
S103  396096.3865178228 2182763.6423005653
S103 396094.90931782284 2182763.6423005653
S103 396094.90931782284 2182765.6118005654
S103 396092.93981782283 2182765.6118005654
S103  396090.9702178228 2182765.6118005654
S103  396090.9702178228 2182766.5966005656
S103  396090.9702178228 2182767.5814005653
S103  396089.0007178228 2182767.5814005653
S103  396087.0311178228 2182767.5814005653
S103  396085.0615178228 2182767.5814005653
S103  396085.0615178228 2182768.5662005655
S103  396085.0615178228 2182769.5510005653
S103  396083.7485178228 2182769.5510005653
S103  396082.4355178228 2182769.5510005653
S103 396081.12241782283 2182769.5510005653
S103 396081.12241782283 2182771.5205005654
S103  396079.6452178228 2182771.5205005654
S103  396078.1681178228 2182771.5205005654
S103  396076.6909178228 2182771.5205005654
S103  396075.2137178228 2182771.5205005654
S103  396075.2137178228 2182772.5053005656
S103  396075.2137178228 2182773.4901005654
S103 396073.90071782283 2182773.4901005654
S103  396072.5877178228 2182773.4901005654
S103 396071.27461782284 2182773.4901005654
S103 396071.27461782284 2182774.4749005656
S103 396071.27461782284 2182775.4596005655
S103  396069.7974178228 2182775.4596005655
S103  396068.3203178228 2182775.4596005655
S103 396066.84311782283 2182775.4596005655
S103  396065.3659178228 2182775.4596005655
S103  396065.3659178228 2182777.4292005654
S103  396063.3964178228 2182777.4292005654
S103  396061.4268178228 2182777.4292005654
S103  396061.4268178228  2182778.414000565
S103  396061.4268178228 2182779.3988005654
S103 396059.94961782283 2182779.3988005654
S103  396058.4725178228 2182779.3988005654
S103  396056.9953178228 2182779.3988005654
S103  396055.5181178228 2182779.3988005654
S103  396055.5181178228 2182780.3835005653
S103  396055.5181178228 2182781.3683005655
S103  396053.8768178228 2182781.3683005655
S103  396052.2355178228 2182781.3683005655
S103  396050.5942178228 2182781.3683005655
S103  396048.9529178228 2182781.3683005655
S103  396047.3116178228 2182781.3683005655
S103 396045.67031782283 2182781.3683005655
S103 396045.67031782283 2182782.3531005653
S103 396045.67031782283 2182783.3379005655
S103  396043.9821178228 2182783.3379005655
S103 396042.29401782283 2182783.3379005655
S103  396040.6058178228 2182783.3379005655
S103  396038.9176178228 2182783.3379005655
S103 396038.03181782283 2182783.3379005655
S103  396042.7727178228 2182804.9528005654
S103  396045.4851178228 2182822.3971005655
S103  396046.4967178228  2182834.038700565
S103 396044.77091782284  2182850.877800565
S103  396043.3707178228  2182855.250900565
S103 396174.00871782284  2182898.293100565
S103  396175.9468178228 2182898.9316005656
S103  396207.2800178228 2182909.2552005653
S103 396209.94001782284  2182900.567500565
S104 396270.91941702797  2183163.320887876
S104   396271.866548163  2183172.757073108
S104 396287.80118393654 2183185.5645950213
S104  396323.0187759066 2183162.6399925346
S104 396270.91941702797  2183163.320887876
S105  396413.3582509353  2183269.196934244
S105 396482.61745093524 2183080.6741342437
S105 396274.34075093525 2183007.9932342437
S105 396273.31165093527 2183007.6341342437
S105 396271.46445093525  2183013.949734244
S105  396259.8965509353  2183053.500734244
S105 396210.08125093527  2183147.015634244
S105 396260.29905093525  2183163.459734244
S105 396270.91945093527  2183163.320934244
S105 396323.01875093527  2183162.640034244
S105  396287.8011509353  2183185.564634244
S105 396280.84785093524 2183197.6955342437
S105 396275.40445093525  2183208.004334244
S105 396266.89075093524  2183224.127634244
S105 396252.33675093524 2183261.4137342437
S105  396237.0396509353  2183298.936534244
S105 396231.42515093525  2183321.323134244
S105 396229.64355093526  2183326.886134244
S105  396284.8388509353 2183301.9995342437
S105  396413.3582509353  2183269.196934244
S106 396148.26496064244 2182987.193458416
S106 396033.29599545425 2183004.889108833
S106 396013.45129239233 2183087.867485033
S106 396110.79074643535 2183116.668780334
S106 396148.26496064244 2182987.193458416
S107 396271.86651295173   2183172.75712069
S107 396270.91941295174   2183163.32092069
S107  396260.2990129517   2183163.45972069
S107 396210.08121295174   2183147.01572069
S107  396179.4089129517   2183136.97192069
S107  396125.8926129517   2183121.13722069
S107 396110.79071295174   2183116.66882069
S107  396077.6076129517   2183231.31842069
S107  396047.9581129517 2183333.7588206897
S107  396057.3111129517   2183354.21772069
S107 396073.12751295173   2183361.47772069
S107 396000.24891295173   2183571.55522069
S107  396055.1965129517   2183544.11982069
S107  396089.7337129517   2183530.49902069
S107 396111.72191295173   2183518.00082069
S107  396137.7605129517   2183419.55042069
S107  396114.6035129517   2183378.75582069
S107 396229.64351295173   2183326.88622069
S107  396231.4251129517   2183321.32312069
S107  396237.0396129517   2183298.93652069
S107  396252.3367129517   2183261.41372069
S107  396266.8907129517   2183224.12762069
S107  396275.4043129517   2183208.00442069
S107  396280.8478129517   2183197.69552069
S107  396287.8011129517   2183185.56462069
S107 396271.86651295173   2183172.75712069
S108  398214.0305676963 2182317.1387730427
S108   398191.029218752 2182298.2667362797
S108  398175.8674755871  2182299.171277292
S108  398166.3868847653  2182288.560925731
S108  398141.9532910161  2182270.827771434
S108  398088.4706249984 2182274.0162479985
S108  398081.3868847656  2182228.560925731
S108  398071.1061230459  2182223.841687451
S108  398061.3868847679 2182218.5609257314
S108 398046.10612304823  2182213.841687451
S108 398041.38688476576 2182208.5609257314
S108 397995.06608398317 2182183.2740604957
S108 397963.14286621095 2182147.5453007314
S108  397908.4382763669 2182150.8057987783
S108  397874.2732373037  2182141.655408151
S108  397815.1295605457  2182089.120007762
S108  397779.7895947288 2182083.8416874516
S108  397758.2826367182   2182095.52869917
S108 397717.98661620927 2182064.3006718233
S108  397727.5282421863 2182046.7420780715
S108 397719.86222656234 2182025.3748905743
S108 397671.34416015464 2182018.8416874493
S108   397621.386884765 2182063.8416874516
S108  397613.2716503895 2182068.5609257338
S108 397595.11308105267  2182028.996716745
S108  397551.1061230455 2182023.8416874493
S108 397544.34220703144 2182009.1053593243
S108 397508.84110840067  2181998.142224559
S108  397495.7240429673   2181977.51844526
S108  397502.3372021479  2181908.996716748
S108  397491.1061230457 2181903.8416874497
S108   397481.237348632  2181898.479138621
S108  397456.3868847656 2181913.8416874497
S108 397438.74651688145 2181916.2012990066
S108 397418.85821404995 2181920.3626874853
S108  397346.2398099497  2181907.717405648
S108 397331.34172430355 2181923.7965064305
S108 397320.39141561155 2181928.9649849455
S108  397298.7465168819 2181928.1068077944
S108  397291.3417243037 2181943.7965064305
S108  397286.1513094602 2181953.6060915845
S108 397280.63124969474   2181999.73400643
S108  397243.0757286974  2181991.876373421
S108  397236.3399087769 2181963.5987794753
S108  397227.8517291864 2181963.9344761567
S108 397201.08661082824  2181943.410785335
S108 397168.53164500574 2181944.7010769364
S108  397151.3417243042 2181953.7965064305
S108 397136.58281873725  2181960.761872446
S108 397092.28441829863 2182008.5719017405
S108  397063.2405261594  2182015.490874399
S108  397055.8717389521 2182061.7469761563
S108 397056.42745150096  2182075.769184553
S108 397067.65854105254  2182118.630498618
S108 397029.73071282846 2182130.6385769355
S108  397037.5325222532 2182175.4432706856
S108 397060.22081898036 2182196.4661952984
S108 397051.15130945883  2182213.606091586
S108 397045.20432923705 2182232.3902814314
S108  397033.0979317096  2182241.141933932
S108  397218.7245986761 2182385.9826234696
S108 397387.94027590606 2182301.4177925345
S108  397651.0485759083 2182284.2471925355
S108  397970.7750759068 2182331.6136925337
S108  398214.0305676963 2182317.1387730427
S109  398214.0305676963 2182317.1387730427
S109  397970.7750759068 2182331.6136925337
S109  397651.0485759083 2182284.2471925355
S109 397387.94027590606 2182301.4177925345
S109  397218.7245986761 2182385.9826234696
S109 398159.24299114617 2183119.8498670035
S109  398162.4458518114 2183111.1280850633
S109 398160.84305181215  2183091.178085065
S109 398184.75415181136  2183063.425385065
S109 398208.74655181146  2183056.201285064
S109  398210.7887518111  2183053.243585065
S109 398216.70425181306 2183049.1590850647
S109   398225.788751811  2183023.243585065
S109  398237.6197518105 2183005.0745850643
S109 398245.78875181096  2182983.243585065
S109  398251.7042518107 2182974.1590850647
S109  398256.6767518122  2182954.781585065
S109 398271.70425181283  2182949.159085065
S109 398275.78875181085 2182928.2435850655
S109  398286.7042518128  2182924.159085065
S109  398288.7465518112 2182921.2012850647
S109  398294.4661518115  2182852.389085066
S109 398274.21955181233  2182826.535785066
S109   398302.261551812 2182816.2378850654
S109  398326.4326518116  2182823.515785066
S109   398334.201251812  2182832.533085065
S109  398357.2804518114 2182834.3873850643
S109  398383.7465518109  2182831.201285065
S109  398383.7465518109  2182826.201285065
S109  398388.7465518131  2182826.201285065
S109 398399.81645181094  2182821.551685066
S109 398418.74655181076  2182826.201285065
S109  398423.7465518107  2182826.201285065
S109  398428.7465518107  2182826.201285065
S109  398433.7465518107  2182826.201285065
S109  398433.7465518107  2182821.201285065
S109  398438.7465518129  2182821.201285065
S109  398440.0184518125  2182777.473285066
S109 398452.47455181216 2182764.9292850643
S109  398453.7465518106  2182756.201285065
S109 398451.56815181195 2182715.7129850658
S109 398440.00135181134 2182697.9493850656
S109  398432.1553518121 2182662.9529850646
S109  398455.7887518102 2182643.2435850664
S109  398496.7042518121 2182639.1590850637
S109 398510.78875181224  2182628.243585064
S109 398528.74655181257 2182626.2012850656
S109 398528.74655181257 2182621.2012850656
S109 398523.74655181257 2182621.2012850656
S109 398523.74655181257 2182616.2012850656
S109  398508.7465518126 2182616.2012850656
S109  398508.7465518126 2182606.2012850656
S109  398498.7465518127 2182606.2012850656
S109  398498.7465518105 2182591.2012850656
S109  398498.7465518105 2182571.2012850638
S109  398486.1061518097 2182563.8416850646
S109  398471.3868518103 2182553.5608850652
S109  398416.1061518122 2182548.8416850646
S109 398410.00565181085  2182542.014285066
S109  398413.0348518111  2182491.201285066
S109 398410.66425181075 2182451.4319850653
S109 398401.10615181224  2182433.841685065
S109 398391.25385181315 2182412.3768850653
S109 398371.58345181285  2182394.801185065
S109 398336.24655181216  2182407.480585066
S109 398292.33415181085 2182391.7237850637
S109   398286.098151811  2182351.704285065
S109 398265.18575181183  2182333.018885065
S109  398241.1201518112 2182334.4544850644
S109 398231.38685181114  2182323.560885066
S109  398216.1061518107 2182318.8416850655
S109  398214.0305676963 2182317.1387730427
S110 397997.79172026104  2181045.295623913
S110   397899.833873362  2181109.212081119
S110  397901.6694096105  2181109.212081119
S110  397903.5871096083  2181109.212081119
S110 397905.50490960927  2181109.212081119
S110 397907.42260960926  2181109.212081119
S110 397909.34030961146  2181109.212081119
S110 397911.25800960924  2181109.212081119
S110  397913.1758096102  2181109.212081119
S110   397915.093509608  2181109.212081119
S110  397917.0112096102  2181109.212081119
S110   397918.929009609  2181109.212081119
S110   397920.846709609  2181109.212081119
S110 397922.76440960896  2181109.212081119
S110 397924.68210961117  2181109.212081119
S110 397926.59990961215  2181109.212081119
S110 397926.59990960994   2181108.22738112
S110 397926.59990960994 2181107.2425811193
S110  397928.5079096087 2181107.2425811193
S110  397930.4159096097 2181107.2425811193
S110  397932.3239096084 2181107.2425811193
S110  397934.2319096094 2181107.2425811193
S110  397936.1399096104 2181107.2425811193
S110 397938.04790960916 2181107.2425811193
S110 397939.95590961014 2181107.2425811193
S110  397941.8640096099 2181107.2425811193
S110  397943.7720096109 2181107.2425811193
S110 397945.68000960967 2181107.2425811193
S110 397947.58800961066 2181107.2425811193
S110  397949.4960096094 2181107.2425811193
S110 397951.40400961036 2181107.2425811193
S110 397953.31200960913 2181107.2425811193
S110  397955.2200096101 2181107.2425811193
S110  397957.1280096089 2181107.2425811193
S110 397959.03610960866 2181107.2425811193
S110 397960.94410960964 2181107.2425811193
S110  397962.8521096106 2181107.2425811193
S110 397964.76010960934 2181107.2425811193
S110  397966.6681096103 2181107.2425811193
S110  397968.5761096113 2181107.2425811193
S110  397970.4841096101 2181107.2425811193
S110  397972.3921096111 2181107.2425811193
S110 397974.30010960985 2181107.2425811193
S110  397976.2082096096 2181107.2425811193
S110  397978.1162096084 2181107.2425811193
S110  397980.0242096093 2181107.2425811193
S110  397981.9322096103 2181107.2425811193
S110  397983.8402096091 2181107.2425811193
S110 397985.74820961006 2181107.2425811193
S110 397987.65620961104 2181107.2425811193
S110 397987.65620960883   2181108.22738112
S110 397987.65620960883  2181109.212081119
S110 397989.62580960966  2181109.212081119
S110 397991.59530960943  2181109.212081119
S110 397993.56490961026  2181109.212081119
S110  397995.5345096089  2181109.212081119
S110 397997.50400960864  2181109.212081119
S110  397999.4736096117  2181109.212081119
S110  398001.4431096093  2181109.212081119
S110  398003.4127096101  2181109.212081119
S110  398003.4127096101 2181110.1968811196
S110  398003.4127096101   2181111.18168112
S110  398005.3823096109   2181111.18168112
S110 398007.35180961073   2181111.18168112
S110 398009.32140960934   2181111.18168112
S110  398011.2909096091   2181111.18168112
S110 398013.26050960994   2181111.18168112
S110 398015.23010961077   2181111.18168112
S110 398017.19960961054   2181111.18168112
S110 398017.19960961054 2181113.1512811184
S110 398018.95030961046 2181113.1512811184
S110  398020.7011096092 2181113.1512811184
S110 398022.45180960913 2181113.1512811184
S110 398024.20250960905 2181113.1512811184
S110 398025.95320960897 2181113.1512811184
S110  398027.7039096089 2181113.1512811184
S110  398029.4547096098 2181113.1512811184
S110  398031.2054096097 2181113.1512811184
S110 398032.95610960963 2181113.1512811184
S110 398032.95610960963   2181114.13598112
S110 398032.95610960963 2181115.1207811204
S110 398034.92570960824 2181115.1207811185
S110 398036.89520961023 2181115.1207811185
S110 398038.86480960884 2181115.1207811204
S110  398040.8343096087 2181115.1207811204
S110  398042.8039096095 2181115.1207811185
S110 398044.77350961027 2181115.1207811185
S110  398046.7430096101 2181115.1207811204
S110  398046.7430096101 2181117.0903811194
S110  398048.7126096087 2181117.0903811194
S110  398050.6821096107 2181117.0903811194
S110  398052.6517096093 2181117.0903811194
S110 398054.62130960793 2181117.0903811194
S110  398056.5908096099 2181117.0903811194
S110 398058.56040961074 2181117.0903811194
S110 398060.52990960836 2181117.0903811194
S110  398062.4995096092 2181117.0903811194
S110  398062.4995096114 2181118.0751811196
S110  398062.4995096092  2181119.059881119
S110  398064.2502096091  2181119.059881119
S110   398066.000909609  2181119.059881119
S110 398067.75170960993  2181119.059881119
S110 398069.50240961206  2181119.059881119
S110 398071.25310960977  2181119.059881119
S110  398073.0038096097  2181119.059881119
S110  398074.7545096096  2181119.059881119
S110  398076.5052096095  2181119.059881119
S110  398078.2560096104  2181119.059881119
S110  398078.2560096104 2181120.0446811193
S110  398078.2560096082   2181121.02948112
S110 398080.22550961026   2181121.02948112
S110  398082.1951096089   2181121.02948112
S110 398084.16460960865   2181121.02948112
S110  398086.1342096095   2181121.02948112
S110  398088.1038096103   2181121.02948112
S110  398090.0733096101   2181121.02948112
S110  398092.0429096087   2181121.02948112
S110  398092.0429096109 2181122.9990811185
S110  398094.0124096085 2181122.9990811185
S110 398095.98200960935 2181122.9990811185
S110  398097.9516096101 2181122.9990811185
S110 398099.92110960995 2181122.9990811185
S110 398101.89070960856  2181122.999081121
S110 398103.86020961055  2181122.999081121
S110 398105.82980960916 2181122.9990811185
S110    398107.79940961 2181122.9990811185
S110    398107.79940961   2181123.98378112
S110    398107.79940961  2181124.968581118
S110 398109.52270961023  2181124.968581118
S110  398111.2461096093  2181124.968581118
S110 398112.96950961056  2181124.968581118
S110  398114.6928096086  2181124.968581118
S110  398116.4162096099  2181124.968581118
S110  398118.1396096089  2181124.968581118
S110 398119.86290960916  2181124.968581118
S110 398121.58630961046  2181124.968581118
S110 398121.58630960825  2181125.953381119
S110 398121.58630961046  2181126.938181119
S110 398123.55580961023  2181126.938181119
S110 398125.52540960885  2181126.938181119
S110  398127.4950096097  2181126.938181119
S110 398129.46450960945  2181126.938181119
S110 398131.43410960806  2181126.938181119
S110  398133.4036096101  2181126.938181119
S110  398135.3732096087  2181126.938181119
S110 398137.34280960954  2181126.938181119
S110 398137.34280960954 2181127.9229811192
S110 398137.34280960954 2181128.9076811187
S110  398139.3123096093 2181128.9076811187
S110 398141.28190961014 2181128.9076811187
S110  398143.2514096099 2181128.9076811187
S110 398145.22100960853 2181128.9076811187
S110 398147.19060960936 2181128.9076811187
S110  398149.1601096092 2181128.9076811187
S110 398151.12970960996 2181128.9076811187
S110 398151.12970960996 2181130.8772811196
S110  398152.8804096099 2181130.8772811196
S110  398154.6311096076 2181130.8772811196
S110  398156.3818096097 2181130.8772811196
S110  398158.1326096107 2181130.8772811196
S110  398159.8833096106 2181130.8772811196
S110  398161.6340096105 2181130.8772811196
S110 398163.38470961043 2181130.8772811196
S110 398165.13540960813 2181130.8772811196
S110 398166.88620960905 2181130.8772811196
S110 398166.88620960905 2181131.8620811203
S110 398166.88620960905  2181132.846881118
S110  398168.8557096089  2181132.846881118
S110 398170.82530960965  2181132.846881118
S110  398172.7948096095  2181132.846881118
S110  398174.7644096103  2181132.846881118
S110  398176.7340096089  2181132.846881118
S110  398178.7035096087  2181132.846881118
S110  398180.6731096095  2181132.846881118
S110  398180.6731096095   2181134.81638112
S110  398182.6426096093   2181134.81638112
S110  398184.6122096101   2181134.81638112
S110 398186.58180960873   2181134.81638112
S110 398188.55130960856   2181134.81638112
S110  398190.5209096094   2181134.81638112
S110  398192.4904096114   2181134.81638112
S110    398194.46000961   2181134.81638112
S110  398196.4296096086   2181134.81638112
S110  398196.4296096108 2181135.8011811185
S110  398196.4296096086 2181136.7859811187
S110 398198.15290960885 2181136.7859811187
S110  398199.8763096101 2181136.7859811187
S110  398201.5996096104 2181136.7859811187
S110  398203.3230096094 2181136.7859811187
S110 398205.04640960845 2181136.7859811187
S110 398206.76970960875 2181136.7859811187
S110    398208.49310961 2181136.7859811187
S110  398210.2165096091 2181136.7859811187
S110  398210.2165096091 2181137.7707811194
S110  398210.2165096091  2181138.755481119
S110 398212.18600961106  2181138.755481119
S110  398214.1556096097  2181138.755481119
S110 398216.12510960945  2181138.755481119
S110  398218.0947096103  2181138.755481119
S110  398220.0643096089  2181138.755481119
S110  398222.0338096087  2181138.755481119
S110  398224.0034096095  2181138.755481119
S110  398225.9729096071  2181138.755481119
S110  398225.9729096093  2181139.740281119
S110  398225.9729096093 2181140.7250811197
S110 398227.94250961015 2181140.7250811197
S110   398229.912109611 2181140.7250811197
S110 398231.88160960854 2181140.7250811197
S110 398233.85120960936 2181140.7250811197
S110 398235.82070960914 2181140.7250811197
S110 398237.79030960996 2181140.7250811197
S110  398239.7599096108 2181140.7250811197
S110  398239.7599096086   2181142.69468112
S110  398241.5106096107 2181142.6946811182
S110  398243.2613096106 2181142.6946811182
S110 398245.01200961054 2181142.6946811182
S110 398246.76270960824 2181142.6946811182
S110 398248.51350960915 2181142.6946811182
S110  398250.2642096091 2181142.6946811182
S110   398252.014909609 2181142.6946811182
S110  398253.7656096089 2181142.6946811182
S110  398255.5163096088 2181142.6946811182
S110  398255.5163096088 2181143.6793811196
S110  398255.5163096088  2181144.664181118
S110  398256.9935096106   2181144.66418112
S110  398258.4707096101   2181144.66418112
S110  398259.9479096074   2181144.66418112
S110  398261.4250096103   2181144.66418112
S110  398261.4250096103  2181146.633781119
S110 398262.73810960824  2181146.633781119
S110 398264.05110960954  2181146.633781119
S110  398265.3641096087  2181146.633781119
S110  398265.3641096109  2181147.618581119
S110  398265.3641096087  2181148.603281121
S110  398267.3337096095 2181148.6032811184
S110 398269.30330961035  2181148.603281121
S110 398269.30330961035  2181149.588081119
S110 398269.30330961256 2181150.5728811193
S110 398270.61630960944 2181150.5728811193
S110  398271.9293096108 2181150.5728811193
S110 398273.24240960873 2181150.5728811193
S110 398273.24240960873  2181152.542381119
S110 398275.21190960857  2181152.542381119
S110 398277.18150960933  2181152.542381119
S110 398277.18150960933 2181153.5271811197
S110 398277.18150960933   2181154.51198112
S110  398278.6587096089   2181154.51198112
S110 398280.13580960955   2181154.51198112
S110 398281.61300960905   2181154.51198112
S110  398283.0902096108   2181154.51198112
S110  398283.0902096086  2181155.496781118
S110  398283.0902096108 2181156.4815811184
S110  398284.4032096099 2181156.4815811184
S110 398285.71630961006 2181156.4815811184
S110  398287.0293096092 2181156.4815811208
S110  398287.0293096092 2181158.4510811204
S110 398288.34230961057 2181158.4510811204
S110  398289.6554096085 2181158.4510811204
S110  398290.9684096098 2181158.4510811204
S110  398290.9684096098 2181159.4358811188
S110  398290.9684096098  2181160.420681119
S110  398292.9380096084  2181160.420681119
S110 398294.90750960825  2181160.420681119
S110 398294.90750961046 2181161.4054811196
S110 398294.90750960825  2181162.390181119
S110 398296.38470960996  2181162.390181119
S110 398297.86190960725  2181162.390181119
S110  398299.3390096102  2181162.390181119
S110  398300.8162096097  2181162.390181119
S110  398300.8162096097   2181164.35978112
S110  398302.1293096098   2181164.35978112
S110  398303.4423096112   2181164.35978112
S110  398304.7553096103   2181164.35978112
S110  398304.7553096103   2181165.34458112
S110  398304.7553096103 2181166.3293811185
S110  398306.7249096089 2181166.3293811185
S110  398308.6945096097 2181166.3293811185
S110  398308.6945096097   2181167.31408112
S110  398308.6945096097 2181168.2988811205
S110  398310.0075096088  2181168.298881118
S110  398311.3205096102  2181168.298881118
S110  398312.6336096103  2181168.298881118
S110  398312.6336096103  2181170.268481119
S110 398314.11070961104  2181170.268481119
S110  398315.5879096083  2181170.268481119
S110 398317.06510961003  2181170.268481119
S110 398318.54230960953  2181170.268481119
S110 398318.54230960953 2181171.2532811193
S110 398318.54230960953 2181172.2379811187
S110 398320.51180960936 2181172.2379811187
S110  398322.4814096102 2181172.2379811187
S110  398322.4814096102 2181173.2227811194
S110  398322.4814096102 2181174.2075811196
S110  398323.7944096093 2181174.2075811196
S110  398325.1075096094 2181174.2075811196
S110  398326.4205096086 2181174.2075811196
S110  398326.4205096086 2181176.1771811205
S110 398327.73350960994 2181176.1771811205
S110  398329.0466096079  2181176.177181118
S110  398330.3596096092 2181176.1771811205
S110  398330.3596096092   2181177.16188112
S110  398330.3596096092   2181178.14668112
S110    398332.32920961   2181178.14668112
S110 398334.29870960984   2181178.14668112
S110 398334.29870960984  2181179.131481121
S110 398334.29870960984 2181180.1162811187
S110 398335.77590960934 2181180.1162811187
S110 398337.25310960884 2181180.1162811187
S110 398338.73020960955 2181180.1162811187
S110 398340.20740960905 2181180.1162811187
S110 398340.20740960684  2181182.085781119
S110  398342.1770096099  2181182.085781119
S110 398344.14650960965  2181182.085781119
S110 398344.14650960965  2181183.070581119
S110 398344.14650960965 2181184.0553811193
S110  398345.4596096098 2181184.0553811193
S110 398346.77260960895 2181184.0553811193
S110  398348.0856096103 2181184.0553811193
S110  398348.0856096103   2181185.04018112
S110  398348.0856096103   2181186.02498112
S110 398350.05520960886   2181186.02498112
S110  398352.0248096097   2181186.02498112
S110  398352.0248096097 2181187.9944811203
S110  398353.5019096082  2181187.994481118
S110  398354.9791096099 2181187.9944811203
S110  398356.4563096094 2181187.9944811203
S110  398357.9334096101 2181187.9944811203
S110  398357.9334096101  2181188.979281118
S110  398357.9334096079  2181189.964081119
S110 398359.24650961027  2181189.964081119
S110  398360.5595096094  2181189.964081119
S110 398361.87260960956  2181189.964081119
S110 398361.87260960956 2181191.9335811185
S110 398363.84210960934 2181191.9335811185
S110  398365.8117096124 2181191.9335811185
S110 398365.81170961016  2181192.918381119
S110 398365.81170960795 2181193.9031811194
S110  398367.1247096093 2181193.9031811194
S110 398368.43780960946 2181193.9031811194
S110 398369.75080960855 2181193.9031811194
S110  398369.7508096108 2181194.8879811196
S110 398369.75080960855 2181195.8727811202
S110  398371.2280096103  2181195.872781118
S110 398372.70510960877 2181195.8727811202
S110  398374.1823096083 2181195.8727811202
S110 398375.65950961004 2181195.8727811202
S110 398375.65950961004   2181197.84228112
S110  398376.9725096091   2181197.84228112
S110  398378.2856096093   2181197.84228112
S110 398379.59860961064   2181197.84228112
S110  398379.5986096084 2181198.8270811206
S110 398379.59860961064 2181199.8118811185
S110 398381.56820960925 2181199.8118811185
S110  398383.5377096113 2181199.8118811185
S110   398383.537709609  2181200.796681119
S110   398383.537709609 2181201.7813811204
S110 398384.85080960917 2181201.7813811204
S110 398386.16380961053 2181201.7813811204
S110  398387.4768096097 2181201.7813811204
S110  398387.4768096119  2181203.750981119
S110 398389.44640960824  2181203.750981119
S110 398391.41600960906  2181203.750981119
S110 398391.41600960685 2181204.7357811197
S110 398391.41600960906   2181205.72058112
S110   398392.893109612   2181205.72058112
S110  398394.3703096093   2181205.72058112
S110  398395.8475096088   2181205.72058112
S110  398397.3246096095   2181205.72058112
S110  398397.3246096095 2181206.7052811193
S110  398397.3246096095 2181207.6900811177
S110 398398.63770961185 2181207.6900811177
S110  398399.9507096088 2181207.6900811177
S110 398401.26380960894   2181207.69008112
S110 398401.26380960894 2181209.6596811186
S110  398402.5768096103 2181209.6596811186
S110  398403.8898096094 2181209.6596811186
S110 398405.20290960954 2181209.6596811186
S110 398405.20290960954  2181210.644481119
S110 398405.20290960954  2181211.629181118
S110 398407.17240960937  2181211.629181118
S110  398409.1420096102  2181211.629181118
S110  398409.1420096102 2181212.6139811184
S110   398409.142009608  2181213.598781119
S110  398410.6192096097  2181213.598781119
S110  398412.0963096104  2181213.598781119
S110  398413.5735096099  2181213.598781119
S110  398415.0507096094  2181213.598781119
S110  398415.0507096094 2181214.5835811193
S110  398415.0507096094   2181215.56838112
S110  398416.3637096085   2181215.56838112
S110 398417.67680960865   2181215.56838112
S110    398418.98980961 2181215.5683811177
S110    398418.98980961 2181217.5378811196
S110 398420.30280960916 2181217.5378811196
S110  398421.6159096093 2181217.5378811196
S110 398422.92890961067 2181217.5378811196
S110  398422.9289096084   2181218.52268112
S110 398422.92890961067  2181219.507481118
S110  398424.8985096092  2181219.507481118
S110 398426.86800960905  2181219.507481118
S110 398426.86800960905   2181221.47698112
S110 398428.34520961076   2181221.47698112
S110 398429.82240961026   2181221.47698112
S110 398431.29950960877   2181221.47698112
S110 398432.77670960827  2181221.476981118
S110 398432.77670960827 2181222.4617811185
S110  398432.7767096105 2181223.4465811187
S110  398434.0898096106 2181223.4465811187
S110  398435.4028096098 2181223.4465811187
S110 398436.71580960887 2181223.4465811187
S110 398436.71580960887 2181224.4313811194
S110 398436.71580961114 2181225.4161811196
S110  398438.6854096097 2181225.4161811196
S110  398440.6550096105 2181225.4161811196
S110  398440.6550096083 2181227.3856811193
S110 398441.96800960967 2181227.3856811193
S110   398443.281009611 2181227.3856811193
S110  398444.5941096089 2181227.3856811193
S110  398444.5941096112   2181228.37048112
S110  398444.5941096089   2181229.35528112
S110 398446.56360960874   2181229.35528112
S110 398448.53320960957   2181229.35528112
S110 398448.53320960957 2181230.3400811185
S110 398448.53320960957  2181231.324781118
S110 398450.01040960907 2181231.3247811203
S110  398451.4875096098  2181231.324781118
S110 398452.96470960707 2181231.3247811203
S110  398454.4419096088 2181231.3247811203
S110  398454.4419096088  2181233.294381119
S110 398455.42670960916  2181233.294381119
S110 398456.41140960855  2181233.294381119
S110 398456.41140960855  2181234.279181119
S110  398456.4114096108 2181235.2639811197
S110  398458.3810096094 2181235.2639811197
S110  398460.3506096102 2181235.2639811197
S110  398460.3506096102 2181237.2334811194
S110 398461.66360960936 2181237.2334811194
S110 398462.97660960845 2181237.2334811194
S110  398464.2897096086 2181237.2334811194
S110 398464.28970961086 2181238.2182811196
S110  398464.2897096086 2181239.2030811203
S110 398466.25920961064  2181239.203081118
S110 398466.25920961064  2181240.187881118
S110 398466.25920961064   2181241.17258112
S110  398467.5723096108   2181241.17258112
S110 398468.88530960993   2181241.17258112
S110  398470.1984096101   2181241.17258112
S110  398470.1984096101 2181242.1573811183
S110  398470.1984096101 2181243.1421811185
S110  398471.5114096092 2181243.1421811185
S110 398472.82440961053 2181243.1421811185
S110 398474.13750960847  2181243.142181121
S110  398474.1375096107 2181245.1117811194
S110  398476.1070096105 2181245.1117811194
S110  398476.1070096105  2181246.096481119
S110  398476.1070096105  2181247.081281119
S110 398477.42010961066  2181247.081281119
S110 398478.73310960975  2181247.081281119
S110  398480.0462096077  2181247.081281119
S110  398480.0462096099   2181249.05088112
S110  398482.0157096097   2181249.05088112
S110  398483.9853096083   2181249.05088112
S110 398483.98530961055 2181250.0356811183
S110 398483.98530961055 2181251.0203811196
S110 398485.29830960964 2181251.0203811196
S110  398486.6113096088 2181251.0203811196
S110 398487.92440961115 2181251.0203811196
S110 398487.92440960894 2181252.0051811202
S110 398487.92440960894 2181252.9899811186
S110  398489.8939096109 2181252.9899811186
S110  398489.8939096109  2181253.974781119
S110  398489.8939096087  2181254.959581119
S110 398491.20700960886  2181254.959581119
S110   398492.520009608  2181254.959581119
S110 398493.83310961036  2181254.959581119
S110 398493.83310961036  2181256.929081119
S110  398495.8026096102  2181256.929081119
S110 398497.77220960875  2181256.929081119
S110 398497.77220960875 2181257.9138811193
S110   398497.772209611   2181258.89868112
S110  398499.7417096086   2181258.89868112
S110  398499.7417096086   2181259.88348112
S110  398499.7417096086 2181260.8681811197
S110 398501.05480961094 2181260.8681811197
S110  398502.3678096101 2181260.8681811197
S110 398503.68090961024 2181260.8681811197
S110 398503.68090961024  2181262.837781118
S110 398504.99390960933  2181262.837781118
S110  398506.3069096085  2181262.837781118
S110  398507.6200096086  2181262.837781118
S110 398507.62000961084 2181263.8225811184
S110  398507.6200096086  2181264.807381119
S110    398508.93300961  2181264.807381119
S110 398510.24610961013  2181264.807381119
S110  398511.5591096092  2181264.807381119
S110  398511.5591096092  2181266.776881119
S110 398513.52870961005  2181266.776881119
S110 398513.52870960784 2181267.7616811194
S110 398513.52870961005 2181268.7464811197
S110  398514.8417096114 2181268.7464811197
S110  398516.1547096083 2181268.7464811197
S110  398517.4678096107 2181268.7464811197
S110 398517.46780960844   2181269.73128112
S110  398517.4678096107 2181270.7159811193
S110 398519.43730960827 2181270.7159811193
S110  398521.4069096091 2181270.7159811193
S110  398521.4069096091   2181272.68558112
S110  398523.3765096099   2181272.68558112
S110  398523.3765096099  2181273.670381121
S110  398523.3765096099 2181274.6551811188
S110   398524.689509609 2181274.6551811188
S110  398526.0025096104 2181274.6551811188
S110  398527.3156096083 2181274.6551811188
S110  398527.3156096105  2181275.639881118
S110  398527.3156096083  2181276.624681119
S110 398529.28510961035  2181276.624681119
S110  398531.2547096111  2181276.624681119
S110  398531.2547096089 2181278.5942811193
S110  398532.5677096103 2181278.5942811193
S110  398533.8808096104 2181278.5942811193
S110 398535.19380960957 2181278.5942811193
S110 398535.19380960957   2181279.57908112
S110 398535.19380960957 2181280.5637811194
S110  398537.1634096104 2181280.5637811194
S110  398537.1634096081 2181282.5333811203
S110  398538.4764096095 2181282.5333811203
S110 398539.78950960963  2181282.533381118
S110  398541.1025096088 2181282.5333811203
S110   398541.102509611  2181283.518181118
S110   398541.102509611  2181284.502981119
S110 398542.41550961015  2181284.502981119
S110   398543.728609608  2181284.502981119
S110  398545.0416096094  2181284.502981119
S110  398545.0416096094 2181285.4876811183
S110  398545.0416096094 2181286.4724811185
S110  398547.0112096102 2181286.4724811185
S110  398547.0112096102 2181287.4572811187
S110  398547.0112096102 2181288.4420811194
S110 398548.32420960936 2181288.4420811194
S110  398549.6373096095 2181288.4420811194
S110  398550.9503096086 2181288.4420811194
S110  398550.9503096108  2181290.411581119
S110  398552.9199096094  2181290.411581119
S110 398554.88940960926  2181290.411581119
S110 398554.88940961147 2181291.3963811197
S110 398554.88940961147   2181292.38118112
S110  398556.2025096094   2181292.38118112
S110  398557.5155096085   2181292.38118112
S110 398558.82850960986   2181292.38118112
S110 398558.82850960986 2181293.3659811206
S110 398558.82850960986 2181294.3506811196
S110  398560.7981096107 2181294.3506811196
S110  398560.7981096107 2181296.3202811186
S110 398562.11110960983 2181296.3202811205
S110    398563.42420961 2181296.3202811186
S110 398564.73720960907 2181296.3202811186
S110  398564.7372096113  2181297.305081119
S110 398564.73720960907  2181298.289881119
S110  398566.7068096099  2181298.289881119
S110  398568.6763096097  2181298.289881119
S110  398568.6763096097 2181299.2745811185
S110  398568.6763096097  2181300.259381119
S110  398569.6611096079  2181300.259381119
S110 398570.64590961055  2181300.259381119
S110 398570.64590961055   2181302.22898112
S110  398572.6155096091 2181302.2289811177
S110 398574.58500960894   2181302.22898112
S110 398574.58500960894 2181303.2137811203
S110 398574.58500960894 2181304.1984811197
S110  398575.8981096091 2181304.1984811197
S110  398577.2111096082 2181304.1984811197
S110 398578.52410960954 2181304.1984811197
S110 398578.52410960954   2181305.18328112
S110 398578.52410960954 2181306.1680811183
S110  398579.8372096097 2181306.1680811183
S110 398581.15020960884 2181306.1680811183
S110   398582.463309609 2181306.1680811183
S110   398582.463309609  2181308.137681119
S110 398584.43280960876  2181308.137681119
S110 398584.43280960654 2181309.1223811186
S110 398584.43280961097  2181310.107181119
S110  398586.4024096096  2181310.107181119
S110  398588.3719096094  2181310.107181119
S110  398588.3719096072 2181312.0767811197
S110 398589.68500960956 2181312.0767811197
S110 398590.99800961086 2181312.0767811197
S110  398592.3111096088 2181312.0767811197
S110  398592.3111096088   2181313.06158112
S110   398592.311109611 2181314.0462811193
S110  398594.2806096086 2181314.0462811193
S110  398594.2806096086   2181315.03108112
S110  398594.2806096086   2181316.01588112
S110  398595.5937096088   2181316.01588112
S110 398596.90670961014   2181316.01588112
S110  398598.2197096092   2181316.01588112
S110  398598.2197096092 2181317.0006811186
S110  398598.2197096092  2181317.985481119
S110  398599.5328096094  2181317.985481119
S110  398600.8458096085  2181317.985481119
S110  398602.1589096109  2181317.985481119
S110 398602.15890960867  2181319.954981119
S110 398604.12840960844  2181319.954981121
S110 398606.09800960927  2181319.954981119
S110 398606.09800960927  2181320.939781119
S110 398606.09800960927 2181321.9245811193
S110  398607.0828096097 2181321.9245811193
S110  398608.0675096091 2181321.9245811193
S110  398608.0675096091 2181323.8940811194
S110  398610.0371096099 2181323.8940811194
S110 398612.00670961075 2181323.8940811194
S110 398612.00670961075 2181324.8788811197
S110  398612.0067096085 2181325.8636811203
S110 398613.31970960984 2181325.8636811203
S110   398614.632709609 2181325.8636811203
S110 398615.94580960914 2181325.8636811203
S110 398615.94580960914  2181327.833281119
S110  398617.9153096089  2181327.833281119
S110  398617.9153096089   2181328.81798112
S110  398617.9153096089 2181329.8027811185
S110 398619.22840960906 2181329.8027811185
S110  398620.5414096104 2181329.8027811185
S110  398621.8544096096 2181329.8027811185
S110  398621.8544096096 2181331.7723811194
S110 398623.82400961034 2181331.7723811194
S110 398625.79360960895 2181331.7723811194
S110 398625.79360960895 2181332.7571811196
S110 398625.79360961117  2181333.741881119
S110 398626.77830960834  2181333.741881119
S110  398627.7631096088  2181333.741881119
S110  398627.7631096088   2181335.71148112
S110  398629.7327096096   2181335.71148112
S110  398631.7022096094   2181335.71148112
S110  398631.7022096094 2181336.6962811183
S110  398631.7022096094 2181337.6810811185
S110 398633.01530960953 2181337.6810811185
S110  398634.3283096109  2181337.681081121
S110  398635.6414096088 2181337.6810811185
S110 398635.64140961104  2181338.665781118
S110  398635.6414096088  2181339.650581118
S110  398637.6109096086  2181339.650581118
S110  398637.6109096086  2181341.620181119
S110 398638.92400960875  2181341.620181119
S110  398640.2370096101  2181341.620181119
S110 398641.55000960926  2181341.620181119
S110 398641.55000960926 2181342.6049811197
S110 398641.55000961147  2181343.589681119
S110  398643.5196096101  2181343.589681119
S110  398643.5196096101 2181344.5744811194
S110  398643.5196096101 2181345.5592811177
S110  398644.8326096092 2181345.5592811196
S110  398646.1457096093 2181345.5592811196
S110  398647.4587096085 2181345.5592811177
S110  398647.4587096107 2181347.5288811186
S110  398649.4283096093 2181347.5288811186
S110  398649.4283096093   2181348.51358112
S110  398649.4283096093 2181349.4983811183
S110  398650.7413096106 2181349.4983811183
S110 398652.05440960854 2181349.4983811183
S110  398653.3674096099 2181349.4983811183
S110  398653.3674096099  2181350.483181121
S110  398653.3674096099  2181351.467981119
S110  398655.3370096107  2181351.467981119
S110  398655.3370096085  2181353.437481119
S110  398656.6500096099  2181353.437481119
S110 398657.96300960897  2181353.437481119
S110  398659.2761096091  2181353.437481119
S110  398659.2761096091  2181354.422281119
S110  398659.2761096091 2181355.4070811197
S110 398661.24560960894 2181355.4070811197
S110  398663.2152096075 2181355.4070811197
S110 398663.21520960977 2181357.3766811206
S110 398664.20000961015 2181357.3766811183
S110 398665.18480961054 2181357.3766811183
S110 398665.18480961054   2181358.36138112
S110  398665.1848096083 2181359.3461811203
S110 398667.15430960816 2181359.3461811203
S110   398669.123909609  2181359.346181118
S110   398669.123909609 2181360.3309811186
S110   398669.123909609  2181361.315781119
S110 398670.10870960937  2181361.315781119
S110 398671.09340961097  2181361.315781119
S110 398671.09340960876 2181362.3005811195
S110 398671.09340960876 2181363.2852811185
S110  398673.0630096096  2181363.285281121
S110  398675.0326096082 2181363.2852811185
S110  398675.0326096104 2181365.2548811194
S110  398677.0021096102 2181365.2548811194
S110  398677.0021096102   2181366.23968112
S110  398677.0021096102 2181367.2244811202
S110  398678.3152096104 2181367.2244811202
S110 398679.62820960727 2181367.2244811202
S110 398680.94120960863 2181367.2244811202
S110 398680.94120960863  2181369.193981118
S110  398682.2543096088  2181369.193981118
S110  398683.5673096101 2181369.1939811204
S110  398684.8804096103 2181369.1939811204
S110   398684.880409608 2181370.1787811182
S110  398684.8804096125  2181371.163581119
S110 398686.84990961006  2181371.163581119
S110 398686.84990961006  2181372.148381119
S110 398686.84990961006 2181373.1330811186
S110  398688.1630096102  2181373.133081121
S110 398689.47600960935 2181373.1330811186
S110 398690.78900960844 2181373.1330811186
S110 398690.78900961066  2181374.117881119
S110 398690.78900960844 2181375.1026811195
S110  398692.7586096093 2181375.1026811195
S110  398692.7586096093 2181377.0722811203
S110 398694.07160961063 2181377.0722811203
S110 398695.38470960857  2181377.072281118
S110  398696.6977096099 2181377.0722811203
S110  398696.6977096099   2181378.05698112
S110 398696.69770961214   2181379.04178112
S110  398698.6673096085 2181379.0417811177
S110  398698.6673096107 2181381.0113811186
S110 398699.98030960985 2181381.0113811186
S110    398701.29340961 2181381.0113811186
S110 398702.60640961136 2181381.0113811186
S110 398702.60640960914  2181381.996181119
S110 398702.60640960914  2181382.980881118
S110 398704.57600960997  2181382.980881118
S110 398704.57600960997  2181383.965681119
S110 398704.57600960997  2181384.950481119
S110 398705.88900960906  2181384.950481119
S110  398706.7155096093  2181384.950481119
S110  398705.2467096089 2181384.0455811187
S110  398699.5924096107 2181365.8912811195
S110 398705.65260960953  2181348.108081119
S110 398708.74650960794  2181346.201281119
S110 398708.74650960794  2181341.201281119
S110 398708.74650960794  2181336.201281119
S110 398708.74650961015  2181331.201281119
S110  398703.7465096102  2181331.201281119
S110  398703.7465096102  2181326.201281119
S110  398703.7465096102  2181321.201281119
S110 398699.15360960976 2181318.5828811186
S110  398691.9307096103 2181300.0867811195
S110  398698.7465096102  2181296.201281119
S110  398698.7465096102  2181291.201281119
S110  398700.4262096099  2181282.880981119
S110  398703.7465096102 2181276.2012811196
S110 398703.74650960794 2181271.2012811196
S110 398708.74650961015 2181271.2012811196
S110 398708.74650961015 2181266.2012811196
S110 398713.74650961015 2181256.2012811196
S110 398713.74650961015 2181246.2012811196
S110 398718.74650961015 2181246.2012811196
S110 398718.74650961015 2181241.2012811196
S110 398713.74650961015 2181231.2012811196
S110 398708.74650961015 2181221.2012811196
S110  398703.7465096102 2181221.2012811196
S110  398653.7465096104 2181221.2012811196
S110 398546.15130960906  2181218.796481119
S110 398531.34170961025   2181213.60608112
S110  398492.5630096091   2181202.79678112
S110  398466.3417096105   2181193.60608112
S110  398450.5122096108   2181188.59388112
S110 398298.41510960914  2181129.366581118
S110 398270.59520960966 2181108.0335811195
S110 398230.65020961117 2181109.6168811196
S110   398206.151309608 2181093.7964811195
S110 398180.07030960807 2181073.7964811195
S110  398166.1513096104 2181078.6060811207
S110  398147.2530096085 2181088.6060811183
S110  398128.7715096096   2181080.59948112
S110  398105.1253096097  2181064.328781119
S110  398076.1513096085 2181058.7964811195
S110  398028.8698096088  2181048.903981119
S110  398018.7465096082 2181048.5035811192
S110 398011.17630960833   2181048.80258112
S110 397997.79172026104  2181045.295623913
S111 397438.74651688145 2181916.2012990066
S111  397445.1515298564  2181898.759891424
S111 397426.43262985663 2181872.3597914223
S111  397431.3856298569 2181857.5428914246
S111  397441.4326298566 2181848.8868914223
S111  397458.4572298565  2181829.126091424
S111   397469.016929858 2181828.2776914225
S111  397530.7246298566  2181834.345791424
S111 397543.74652985565 2181833.2996914224
S111 397578.74652985774 2181836.1121914242
S111 397641.94472985825  2181831.034091423
S111  397656.4326298558 2181843.5157914236
S111 397664.94522985665  2181853.396091424
S111  397674.5912298568  2181854.171291423
S111 397693.34672985674 2181845.8020914234
S111 397705.35662985774 2181818.8868914223
S111  397721.4326298556 2181823.5157914236
S111  397731.0603298556 2181828.8868914223
S111 397784.01752985636  2181843.302091425
S111 397806.06032985536 2181868.8868914223
S111 397816.43262985523 2181873.5157914236
S111 397834.51802985795  2181883.606091423
S111 397864.44652985473  2181889.065091423
S111  397872.6649298572  2181907.483091423
S111 397893.74652985664  2181916.201291424
S111 397910.72162985575 2181893.1763914237
S111  397916.0152298569  2181863.470591422
S111  397926.3008298563 2181854.9268914238
S111  397931.0152298568  2181828.470591422
S111 397936.61022985424 2181818.7012914238
S111  397926.4778298562 2181801.0096914247
S111 397946.39172985737 2181774.8267914224
S111  397978.7880298577 2181765.3199914233
S111  397987.9310298572  2181757.725991423
S111 397984.79632985574  2181726.975191424
S111 398000.55252985616 2181708.0079914234
S111  398011.4778298559  2181698.931991423
S111  398017.8212298564  2181684.305591423
S111  398064.6095298555 2181679.5362914223
S111  398081.0152298563  2181688.931991423
S111 398126.47782985773 2181698.4705914226
S111  398142.9335298577 2181710.3125914233
S111  398161.4247298556 2181708.4278914225
S111  398186.0493298573  2181727.916391424
S111 398199.76212985703  2181729.314091423
S111 398213.74652985774  2181726.201291423
S111  398216.1293298582 2181723.1141914227
S111  398231.9026298554 2181732.6294914223
S111 398301.56812985655  2181659.023591423
S111 398310.92482985725 2181643.3789914236
S111   398318.586029857 2181633.1149914223
S111  398318.5422298566 2181633.1149914223
S111 398316.57272985677 2181633.1149914246
S111 398316.57272985677 2181631.1453914237
S111  398315.2596298566 2181631.1453914237
S111  398313.9466298553 2181631.1453914237
S111 398312.63362985617 2181631.1453914237
S111 398312.63362985617 2181630.1606914243
S111 398312.63362985617  2181629.175891424
S111 398311.32052985823 2181629.1758914217
S111 398310.00752985687  2181629.175891424
S111  398308.6944298567 2181629.1758914217
S111  398308.6944298567 2181628.1910914234
S111  398308.6944298567  2181627.206291423
S111 398306.72492985695  2181627.206291423
S111 398306.72492985695 2181625.2367914235
S111  398304.7553298561 2181625.2367914235
S111 398302.78582985635 2181625.2367914235
S111 398302.78582985635  2181624.251991423
S111 398302.78582985635 2181623.2671914226
S111  398301.4727298562 2181623.2671914226
S111 398300.15972985706 2181623.2671914226
S111  398298.8466298569 2181623.2671914226
S111  398298.8466298569 2181622.2823914243
S111  398298.8466298569  2181621.297691425
S111 398297.53362985776 2181621.2976914225
S111  398296.2206298542 2181621.2976914225
S111  398294.9075298563 2181621.2976914225
S111  398294.9075298563  2181619.328091424
S111  398292.9380298565  2181619.328091424
S111 398290.96842985786  2181619.328091424
S111 398290.96842985565 2181618.3432914237
S111 398290.96842985786  2181617.358491423
S111 398289.65542985656  2181617.358491423
S111  398288.3423298564  2181617.358491423
S111 398287.02932985727  2181617.358491423
S111 398287.02932985727 2181615.3889914234
S111  398286.0445298568 2181615.3889914234
S111 398285.05972985644 2181615.3889914234
S111 398285.05972985644  2181614.404191423
S111 398285.05972985644  2181613.419391425
S111 398283.09022985667 2181613.4193914225
S111 398281.12062985805 2181613.4193914225
S111 398281.12062985584 2181612.4345914247
S111 398281.12062985584  2181611.449891423
S111  398279.8076298567  2181611.449891423
S111 398278.49452985654  2181611.449891423
S111  398277.1815298552  2181611.449891423
S111  398277.1815298574  2181609.480291422
S111 398275.21192985657 2181609.4802914243
S111  398273.2424298568 2181609.4802914243
S111  398273.2424298568 2181608.4954914236
S111  398273.2424298568 2181607.5106914234
S111 398271.92932985665 2181607.5106914234
S111  398270.6163298575 2181607.5106914234
S111 398269.30322985735 2181607.5106914234
S111 398269.30322985735 2181606.5259914217
S111 398269.30322985735  2181605.541191424
S111  398267.3337298576  2181605.541191424
S111  398267.3337298576  2181603.571591423
S111 398266.02062985743  2181603.571591423
S111  398264.7076298561  2181603.571591423
S111  398263.3946298569  2181603.571591423
S111  398263.3946298569  2181602.586791422
S111  398263.3946298569 2181601.6020914232
S111 398261.42502985836 2181601.6020914232
S111 398259.45542985754 2181601.6020914232
S111 398259.45542985754  2181600.617291425
S111 398259.45542985754 2181599.6324914224
S111  398258.1424298562 2181599.6324914224
S111   398256.829429857  2181599.632491424
S111  398255.5163298569 2181599.6324914224
S111  398255.5163298569  2181597.662891424
S111  398254.2033298578  2181597.662891424
S111 398252.89022985764  2181597.662891424
S111  398251.5772298563  2181597.662891424
S111  398251.5772298563 2181596.6781914243
S111  398251.5772298563 2181595.6933914237
S111 398249.60762985767 2181595.6933914237
S111  398247.6381298579 2181595.6933914237
S111  398247.6381298579 2181594.7085914235
S111  398247.6381298557  2181593.723791423
S111 398246.65332985745  2181593.723791425
S111 398245.66852985707  2181593.723791423
S111 398245.66852985707 2181592.7389914226
S111  398245.6685298593  2181591.754291423
S111 398243.69902985723  2181591.754291423
S111 398241.72942985647  2181591.754291423
S111  398241.7294298587 2181589.7846914222
S111  398240.4164298573 2181589.7846914246
S111  398239.1033298572 2181589.7846914222
S111  398237.7903298558 2181589.7846914222
S111  398237.7903298558 2181588.7998914244
S111  398237.7903298558 2181587.8150914237
S111  398236.4772298579 2181587.8150914237
S111  398235.1642298566 2181587.8150914237
S111  398233.8512298574 2181587.8150914237
S111  398233.8512298574  2181585.845591424
S111  398231.8816298566  2181585.845591424
S111 398229.91202985577  2181585.845591424
S111 398229.91202985577 2181584.8607914234
S111 398229.91202985577  2181583.875991423
S111   398227.942529856  2181583.875991423
S111   398227.942529856  2181582.891191423
S111   398227.942529856 2181581.9064914235
S111 398226.62942985585 2181581.9064914235
S111  398225.3164298567 2181581.9064914235
S111 398224.00342985755 2181581.9064914235
S111 398224.00342985755 2181579.9368914226
S111  398222.6903298574 2181579.9368914226
S111  398221.3773298561 2181579.9368914226
S111 398220.06422985595 2181579.9368914226
S111 398220.06422985595 2181578.9520914243
S111 398220.06422985595  2181577.967291424
S111  398218.0947298561  2181577.967291424
S111  398216.1251298575  2181577.967291424
S111 398214.15562985773  2181577.967291424
S111  398212.1860298569  2181577.967291424
S111  398210.2164298561  2181577.967291424
S111  398210.2164298561 2181576.9825914246
S111  398210.2164298561  2181575.997791424
S111  398208.5751298572  2181575.997791422
S111 398206.93392985716  2181575.997791424
S111  398205.2926298561  2181575.997791422
S111 398203.65132985724  2181575.997791424
S111  398202.0100298561  2181575.997791424
S111 398200.36872985726  2181575.997791424
S111 398200.36872985505 2181574.0281914235
S111 398198.39912985644 2181574.0281914235
S111  398196.4295298578 2181574.0281914235
S111 398194.46002985584 2181574.0281914235
S111  398192.4904298572 2181574.0281914235
S111  398190.5209298552 2181574.0281914235
S111  398190.5209298574  2181573.043391423
S111  398190.5209298574 2181572.0586914234
S111 398188.83272985544 2181572.0586914234
S111 398187.14452985564 2181572.0586914234
S111 398185.45632985584 2181572.0586914234
S111  398183.7681298539 2181572.0586914234
S111  398182.0799298563 2181572.0586914234
S111 398180.39172985655 2181572.0586914234
S111 398178.70352985675 2181572.0586914234
S111 398178.70352985675  2181570.089091425
S111  398177.0622298557 2181570.0890914225
S111 398175.42092985683 2181570.0890914225
S111  398173.7796298557  2181570.089091425
S111 398172.13832985685  2181570.089091425
S111  398170.4970298558  2181570.089091425
S111 398168.85572985694 2181570.0890914225
S111 398168.85572985694 2181569.1042914223
S111 398168.85572985694  2181568.119491424
S111  398166.8861298561  2181568.119491424
S111  398164.9166298563  2181568.119491424
S111 398162.94702985766  2181568.119491424
S111  398160.9775298557  2181568.119491424
S111 398159.00792985706  2181568.119491424
S111 398159.00792985706 2181567.1347914226
S111 398159.00792985706 2181566.1499914243
S111  398157.3666298582 2181566.1499914243
S111 398155.72532985714 2181566.1499914243
S111 398154.08402985823  2181566.149991422
S111 398152.44272985717 2181566.1499914243
S111  398150.8014298561 2181566.1499914243
S111 398149.16012985725  2181566.149991422
S111 398149.16012985725  2181565.165191424
S111 398149.16012985725 2181564.1803914234
S111  398147.5188298561 2181564.1803914234
S111  398145.8775298573 2181564.1803914234
S111  398144.2362298562 2181564.1803914234
S111  398142.5949298573 2181564.1803914234
S111 398140.95362985623 2181564.1803914234
S111 398139.31232985517 2181564.1803914234
S111  398139.3123298574 2181562.2108914237
S111 398137.34272985655 2181562.2108914237
S111  398135.3732298568 2181562.2108914237
S111 398133.40362985595 2181562.2108914237
S111  398131.4341298561 2181562.2108914237
S111  398129.4645298553 2181562.2108914237
S111 398127.49492985674 2181562.2108914237
S111 398127.49492985447  2181561.226091423
S111 398127.49492985674  2181560.241291423
S111  398125.8536298556  2181560.241291423
S111 398124.21232985676  2181560.241291423
S111  398122.5710298579  2181560.241291423
S111 398120.92972985684  2181560.241291423
S111  398119.2884298557  2181560.241291423
S111 398117.64712985686  2181560.241291423
S111 398117.64712985686 2181558.2716914243
S111  398116.0058298558 2181558.2716914243
S111 398114.36452985695 2181558.2716914243
S111  398112.7232298558 2181558.2716914243
S111 398111.08192985697 2181558.2716914243
S111  398109.4406298559 2181558.2716914243
S111 398107.79932985705 2181558.2716914243
S111 398107.79932985705  2181557.286991425
S111 398107.79932985705 2181556.3021914246
S111  398105.8298298572 2181556.3021914246
S111  398103.8602298564 2181556.3021914223
S111 398101.89072985883 2181556.3021914223
S111   398099.921129858 2181556.3021914246
S111  398097.9515298572 2181556.3021914223
S111  398097.9515298572  2181555.317391424
S111  398097.9515298572 2181554.3325914238
S111 398095.98202985513 2181554.3325914238
S111  398094.0124298566 2181554.3325914238
S111 398092.04292985675 2181554.3325914238
S111  398090.0733298559 2181554.3325914238
S111  398088.1037298573 2181554.3325914238
S111  398088.1037298573  2181553.347791423
S111  398088.1037298573 2181552.3630914236
S111 398086.13422985753 2181552.3630914236
S111  398084.1646298545 2181552.3630914236
S111 398082.19512985693 2181552.3630914236
S111  398080.2255298561  2181552.363091422
S111  398078.2559298575 2181552.3630914236
S111 398076.28642985545 2181552.3630914236
S111  398076.2864298577  2181550.393491423
S111 398074.80922985595  2181550.393491423
S111 398073.33202985645  2181550.393491423
S111 398071.85492985573  2181550.393491423
S111 398070.37772985623  2181550.393491423
S111 398070.37772985623 2181552.3630914236
S111 398068.40822985646 2181552.3630914236
S111 398066.43862985563 2181552.3630914236
S111   398064.469029857 2181552.3630914236
S111 398062.49952985725 2181552.3630914236
S111  398060.5299298564 2181552.3630914236
S111  398058.5604298566 2181552.3630914236
S111  398058.5604298588  2181553.347791423
S111  398058.5604298588 2181554.3325914238
S111 398056.59082985576 2181554.3325914238
S111  398054.6212298572 2181554.3325914238
S111  398052.6517298574 2181554.3325914238
S111 398050.68212985655 2181554.3325914238
S111  398048.7126298568 2181554.3325914238
S111 398046.74302985595 2181554.3325914238
S111 398044.77342985733 2181554.3325914238
S111 398044.77342985733  2181555.317391424
S111 398044.77342985733 2181556.3021914223
S111  398043.0501298571 2181556.3021914246
S111  398041.3267298558 2181556.3021914223
S111 398039.60332985676 2181556.3021914223
S111  398037.8800298565 2181556.3021914223
S111 398036.15662985743 2181556.3021914246
S111  398034.4332298562 2181556.3021914246
S111 398032.70992985595 2181556.3021914246
S111 398030.98652985686 2181556.3021914246
S111 398030.98652985686 2181557.2869914225
S111 398030.98652985686 2181558.2716914243
S111  398029.0170298571 2181558.2716914243
S111 398027.04742985626 2181558.2716914243
S111 398025.07782985765  2181558.271691422
S111  398023.1083298556 2181558.2716914243
S111 398021.13872985705 2181558.2716914243
S111  398019.1692298572 2181558.2716914243
S111  398017.1996298564 2181558.2716914243
S111  398017.1996298564  2181560.241291423
S111 398015.23002985556  2181560.241291423
S111  398013.2605298558  2181560.241291423
S111  398011.2909298572  2181560.241291423
S111  398009.3214298574  2181560.241291423
S111  398007.3518298566  2181560.241291423
S111 398005.38222985796  2181560.241291423
S111  398003.4127298559  2181560.241291423
S111 398003.41272985813  2181561.226091423
S111  398003.4127298559 2181562.2108914237
S111  398001.7245298584 2181562.2108914237
S111 398000.03632985416 2181562.2108914237
S111 397998.34812985663 2181562.2108914237
S111 397996.65992985683 2181562.2108914237
S111 397994.97172985703 2181562.2108914237
S111  397993.2835298573 2181562.2108914237
S111  397991.5953298575 2181562.2108914237
S111  397991.5953298575 2181564.1803914234
S111 397989.62582985545 2181564.1803914234
S111  397987.6562298569 2181564.1803914234
S111  397985.6866298583 2181564.1803914234
S111 397983.71712985623 2181564.1803914234
S111  397981.7475298577 2181564.1803914234
S111 397979.77802985563 2181564.1803914234
S111   397977.808429857 2181564.1803914234
S111   397977.808429857  2181565.165191424
S111   397977.808429857 2181566.1499914243
S111  397975.8388298562 2181566.1499914243
S111  397973.8693298564 2181566.1499914243
S111  397971.8997298578 2181566.1499914243
S111 397969.93022985576 2181566.1499914243
S111  397967.9606298572 2181566.1499914243
S111  397965.9910298564  2181566.149991422
S111 397964.02152985655 2181566.1499914243
S111 397964.02152985655 2181567.1347914226
S111 397964.02152985655  2181568.119491424
S111  397962.0519298557  2181568.119491424
S111 397960.08242985816  2181568.119491424
S111 397958.11282985733  2181568.119491424
S111  397956.1432298565  2181568.119491424
S111  397956.1432298543 2181569.1042914223
S111  397956.1432298565  2181570.089091425
S111 397954.17372985673  2181570.089091425
S111  397952.2041298581 2181570.0890914225
S111  397950.2346298561  2181570.089091425
S111  397950.2346298561 2181572.0586914234
S111  397948.7574298588 2181572.0586914234
S111  397947.2802298571 2181572.0586914234
S111 397945.80312985636 2181572.0586914234
S111  397944.3259298591 2181572.0586914234
S111 397944.32592985686  2181573.043391423
S111 397944.32592985686 2181574.0281914235
S111 397942.84872985515 2181574.0281914235
S111 397941.37152985565 2181574.0281914235
S111 397939.89442985714 2181574.0281914235
S111 397938.41722985543 2181574.0281914235
S111 397938.41722985543  2181575.997791422
S111 397936.94002985593  2181575.997791424
S111 397935.46292985743  2181575.997791424
S111  397933.9857298557  2181575.997791424
S111  397932.5085298562  2181575.997791424
S111  397932.5085298562 2181576.9825914246
S111  397932.5085298562  2181577.967291424
S111  397931.0314298577  2181577.967291424
S111   397929.554229856  2181577.967291424
S111  397928.0770298565  2181577.967291424
S111  397926.5999298558  2181577.967291424
S111   397926.599929858 2181578.9520914243
S111  397926.5999298558 2181579.9368914226
S111  397925.1227298585 2181579.9368914226
S111  397923.6455298568 2181579.9368914226
S111   397922.168329855 2181579.9368914226
S111  397920.6912298566 2181579.9368914226
S111  397920.6912298566 2181581.9064914235
S111  397919.2140298571 2181581.9064914235
S111  397917.7368298553 2181581.9064914235
S111 397916.25972985686 2181581.9064914235
S111 397914.78252985736 2181581.9064914235
S111 397914.78252985515  2181582.891191423
S111 397914.78252985736  2181583.875991423
S111 397912.81292985653  2181583.875991423
S111  397910.8434298567  2181583.875991423
S111 397908.87382985814  2181583.875991423
S111  397906.9043298561  2181583.875991423
S111  397906.9043298561 2181584.8607914234
S111  397906.9043298561 2181585.8455914217
S111  397905.4271298588  2181585.845591424
S111  397903.9499298571  2181585.845591424
S111 397902.47272985533  2181585.845591424
S111  397900.9956298569  2181585.845591424
S111  397900.9956298569 2181587.8150914237
S111  397899.5184298574 2181587.8150914237
S111  397898.0412298579 2181587.8150914237
S111  397896.5641298572 2181587.8150914237
S111  397895.0869298577 2181587.8150914237
S111  397895.0869298577 2181588.7998914244
S111  397895.0869298554 2181589.7846914222
S111  397893.6097298559 2181589.7846914222
S111 397892.13262985746 2181589.7846914246
S111  397890.6554298557 2181589.7846914222
S111  397889.1782298584 2181589.7846914246
S111  397889.1782298562  2181591.754291423
S111  397887.7010298567  2181591.754291423
S111 397886.22392985824  2181591.754291423
S111  397884.7467298565  2181591.754291423
S111   397883.269529857  2181591.754291423
S111   397883.269529857 2181592.7389914226
S111   397883.269529857  2181593.723791423
S111 397881.79242985626  2181593.723791423
S111 397880.31522985676  2181593.723791423
S111 397878.83802985505  2181593.723791423
S111 397877.36092985654  2181593.723791423
S111 397877.36092985654 2181594.7085914235
S111 397877.36092985654 2181595.6933914237
S111 397875.88372985483 2181595.6933914237
S111 397874.40652985754 2181595.6933914237
S111 397872.92932985805 2181595.6933914237
S111  397871.4522298573 2181595.6933914237
S111  397871.4522298573  2181596.678191422
S111  397871.4522298573  2181597.662891424
S111  397869.9750298556  2181597.662891424
S111  397868.4978298561  2181597.662891424
S111  397867.0207298576  2181597.662891424
S111  397865.5435298581  2181597.662891424
S111  397865.5435298559 2181599.6324914224
S111  397864.0663298564 2181599.6324914224
S111  397862.5892298579 2181599.6324914224
S111  397861.1120298562 2181599.6324914224
S111  397859.6348298567 2181599.6324914224
S111  397859.6348298567 2181600.6172914226
S111  397859.6348298567 2181601.6020914232
S111 397857.66532985686 2181601.6020914232
S111 397855.69572985603 2181601.6020914232
S111  397853.7261298575 2181601.6020914232
S111  397853.7261298575 2181602.5867914245
S111  397853.7261298575  2181603.571591423
S111 397852.24902985897  2181603.571591423
S111 397850.77182985726  2181603.571591423
S111 397849.29462985776  2181603.571591423
S111 397847.81752985704  2181603.571591423
S111 397847.81752985704  2181605.541191424
S111 397846.34032985754  2181605.541191424
S111 397844.86312985804  2181605.541191424
S111  397843.3860298573  2181605.541191424
S111  397841.9088298556  2181605.541191424
S111  397841.9088298578  2181606.525991424
S111  397841.9088298578 2181607.5106914234
S111   397839.939229857 2181607.5106914234
S111 397837.96972985717 2181607.5106914234
S111 397836.00012985634 2181607.5106914234
S111 397836.00012985634 2181608.4954914236
S111 397836.00012985634 2181609.4802914243
S111 397834.52292985684  2181609.480291422
S111  397833.0458298561 2181609.4802914243
S111  397831.5686298566 2181609.4802914243
S111 397830.09142985713  2181609.480291422
S111 397830.09142985713  2181611.449891423
S111  397828.6143298564  2181611.449891423
S111  397827.1371298569  2181611.449891423
S111  397825.6599298574  2181611.449891423
S111  397824.1827298579  2181611.449891423
S111  397824.1827298557 2181612.4345914223
S111  397824.1827298557 2181613.4193914225
S111  397822.2132298559 2181613.4193914225
S111  397820.2436298573 2181613.4193914225
S111  397818.2741298575  2181613.419391425
S111 397816.30452985666 2181613.4193914225
S111 397816.30452985666  2181614.404191423
S111 397816.30452985666 2181615.3889914234
S111 397814.82732985716 2181615.3889914234
S111 397813.35022985644 2181615.3889914234
S111 397811.87302985694 2181615.3889914234
S111 397810.39582985744 2181615.3889914234
S111 397810.39582985523  2181617.358491423
S111 397808.42632985767  2181617.358491423
S111 397806.45672985684  2181617.358491423
S111 397804.48712985823  2181617.358491423
S111   397804.487129856 2181618.3432914237
S111   397804.487129856  2181619.328091424
S111  397802.5176298562  2181619.328091424
S111 397800.54802985763  2181619.328091424
S111  397798.5785298578  2181619.328091424
S111  397798.5785298556  2181621.297691425
S111  397797.1013298561  2181621.297691425
S111  397795.6241298566  2181621.297691425
S111 397794.14702985587  2181621.297691425
S111  397792.6698298564 2181621.2976914225
S111  397792.6698298564 2181622.2823914243
S111  397792.6698298564 2181623.2671914226
S111  397791.1926298569 2181623.2671914226
S111 397789.71552985616 2181623.2671914226
S111 397788.23832985666 2181623.2671914226
S111 397786.76112985716 2181623.2671914226
S111 397786.76112985716  2181624.251991423
S111 397786.76112985716 2181625.2367914235
S111 397785.28392985766 2181625.2367914235
S111 397783.80682985694 2181625.2367914235
S111 397782.32962985744 2181625.2367914235
S111 397780.85242985794 2181625.2367914235
S111 397780.85242985794  2181627.206291423
S111  397778.8829298559  2181627.206291423
S111  397776.9133298573  2181627.206291423
S111  397774.9438298575  2181627.206291423
S111  397774.9438298575 2181628.1910914234
S111  397774.9438298575  2181629.175891424
S111  397773.4666298558  2181629.175891424
S111 397771.98942985624  2181629.175891424
S111 397770.51222985674  2181629.175891424
S111   397769.035129856 2181629.1758914217
S111   397769.035129856  2181630.160691422
S111   397769.035129856 2181631.1453914237
S111  397767.5579298565 2181631.1453914237
S111   397766.080729857 2181631.1453914237
S111  397764.6036298563 2181631.1453914237
S111  397763.1264298591 2181631.1453914237
S111  397763.1264298568 2181633.1149914223
S111  397761.6492298573 2181633.1149914246
S111  397760.1721298566 2181633.1149914223
S111  397758.6949298571 2181633.1149914223
S111  397757.2177298576 2181633.1149914246
S111  397757.2177298576  2181634.099791423
S111  397757.2177298576  2181635.084591423
S111  397755.7405298559  2181635.084591423
S111  397754.2634298574  2181635.084591423
S111  397752.7862298579  2181635.084591423
S111  397751.3090298562  2181635.084591423
S111  397751.3090298562 2181636.0692914226
S111  397751.3090298562  2181637.054091423
S111 397749.83192985546  2181637.054091423
S111 397748.35472985596  2181637.054091423
S111 397746.87752985646  2181637.054091423
S111 397745.40042985574  2181637.054091423
S111 397745.40042985795 2181639.0236914237
S111 397743.92322985624 2181639.0236914237
S111 397742.44602985674 2181639.0236914237
S111 397740.96882985724 2181639.0236914237
S111  397739.4917298565 2181639.0236914237
S111  397739.4917298565 2181640.0084914244
S111  397739.4917298565  2181640.993191424
S111  397737.5221298557  2181640.993191424
S111  397735.5526298559  2181640.993191424
S111  397733.5830298573  2181640.993191424
S111  397733.5830298573  2181641.977991424
S111  397733.5830298573 2181642.9627914224
S111  397732.0074298557 2181642.9627914224
S111 397730.43172985746 2181642.9627914224
S111 397728.85612985585 2181642.9627914224
S111 397727.28042985767 2181642.9627914224
S111 397725.70482985605 2181642.9627914224
S111 397725.70482985605  2181644.932391423
S111 397724.22762985656  2181644.932391423
S111 397722.75042985706  2181644.932391423
S111 397721.27332985855  2181644.932391423
S111 397719.79612985684  2181644.932391423
S111 397719.79612985684 2181645.9170914222
S111 397719.79612985684  2181646.901891423
S111 397718.31892985734  2181646.901891423
S111 397716.84172985563  2181646.901891423
S111  397715.3646298571  2181646.901891423
S111  397713.8874298576  2181646.901891423
S111  397713.8874298576  2181647.886691423
S111  397713.8874298576  2181648.871491424
S111  397712.4102298581  2181648.871491424
S111  397710.9331298596  2181648.871491424
S111  397709.4559298579  2181648.871491424
S111  397707.9787298584  2181648.871491424
S111  397707.9787298584 2181650.8409914235
S111  397706.5016298577 2181650.8409914235
S111  397705.0244298582 2181650.8409914235
S111  397703.5472298564 2181650.8409914235
S111  397702.0700298569 2181650.8409914235
S111  397702.0700298569 2181651.8257914237
S111  397702.0700298569 2181652.8105914243
S111 397700.10052985715  2181652.810591422
S111  397698.1309298563 2181652.8105914243
S111  397696.1614298565 2181652.8105914243
S111  397696.1614298565 2181653.7953914227
S111  397696.1614298565  2181654.780191423
S111   397694.684229857  2181654.780191423
S111  397693.2070298575  2181654.780191423
S111  397691.7299298568  2181654.780191423
S111  397690.2527298573  2181654.780191423
S111  397690.2527298573 2181656.7496914226
S111  397688.7755298556 2181656.7496914226
S111  397687.2983298561 2181656.7496914226
S111 397685.82122985757 2181656.7496914226
S111 397684.34402985586 2181656.7496914226
S111 397684.34402985586 2181657.7344914232
S111 397684.34402985586 2181658.7192914234
S111 397682.86682985636 2181658.7192914234
S111 397681.38972985785 2181658.7192914234
S111 397679.91252985614 2181658.7192914234
S111 397678.43532985664 2181658.7192914234
S111 397678.43532985664  2181659.704091424
S111 397678.43532985664  2181660.688791423
S111  397676.4658298568  2181660.688791423
S111 397674.49622985604  2181660.688791423
S111  397672.5266298552  2181660.688791423
S111  397672.5266298574  2181662.658391424
S111  397671.0495298567  2181662.658391422
S111  397669.5723298572  2181662.658391424
S111  397668.0951298577  2181662.658391424
S111   397666.618029857  2181662.658391422
S111   397666.618029857 2181663.6431914223
S111   397666.618029857 2181664.6279914225
S111  397665.1408298575 2181664.6279914225
S111  397663.6636298558 2181664.6279914225
S111  397662.1865298573 2181664.6279914225
S111 397660.70932985557 2181664.6279914225
S111 397660.70932985557 2181666.5974914227
S111  397659.2321298561 2181666.5974914227
S111 397657.75502985535 2181666.5974914227
S111 397656.27782985807 2181666.5974914227
S111  397654.8006298563 2181666.5974914227
S111  397654.8006298563  2181667.582291423
S111  397654.8006298563 2181668.5670914236
S111  397653.3234298568 2181668.5670914236
S111 397651.84632985835 2181668.5670914236
S111  397650.3691298566 2181668.5670914236
S111  397648.8919298571 2181668.5670914236
S111  397648.8919298571 2181669.5518914238
S111  397648.8919298593  2181670.536591423
S111  397646.9224298573  2181670.536591423
S111  397644.9528298565  2181670.536591423
S111 397642.98332985665  2181670.536591423
S111  397641.0137298581  2181670.536591423
S111  397641.0137298559 2181671.5213914234
S111  397641.0137298581  2181672.506191424
S111  397639.5365298563  2181672.506191424
S111 397638.05942985567 2181672.5061914218
S111  397636.5822298584  2181672.506191424
S111  397635.1050298544  2181672.506191424
S111  397635.1050298566 2181674.4757914227
S111 397633.52942985727 2181674.4757914227
S111  397631.9537298568 2181674.4757914227
S111  397630.3781298574 2181674.4757914227
S111   397628.802429857 2181674.4757914227
S111  397627.2268298576 2181674.4757914227
S111  397627.2268298554  2181675.460491424
S111  397627.2268298576 2181676.4452914223
S111  397625.2572298568 2181676.4452914223
S111 397623.28772985697 2181676.4452914246
S111  397621.3181298562 2181676.4452914246
S111  397619.3485298554 2181676.4452914223
S111 397617.37902985775 2181676.4452914246
S111 397617.37902985775  2181678.414891423
S111  397615.4094298569  2181678.414891423
S111 397613.43992985715  2181678.414891423
S111  397611.4703298563  2181678.414891423
S111  397609.5007298577  2181678.414891423
S111  397609.5007298555 2181679.3996914234
S111  397609.5007298577  2181680.384391423
S111 397607.85942985665  2181680.384391423
S111  397606.2181298578  2181680.384391423
S111 397604.57682985667  2181680.384391423
S111  397602.9355298556  2181680.384391423
S111 397601.29422985675  2181680.384391423
S111  397599.6529298557  2181680.384391423
S111  397599.6529298579 2181681.3691914235
S111  397599.6529298557 2181682.3539914237
S111  397598.0116298568 2181682.3539914237
S111  397596.3703298579 2181682.3539914237
S111 397594.72902985686 2181682.3539914237
S111  397593.0877298558 2181682.3539914237
S111  397591.4464298569 2181682.3539914237
S111  397589.8051298558 2181682.3539914237
S111  397589.8051298558 2181683.3387914244
S111  397589.8051298558 2181684.3235914223
S111 397587.83562985604 2181684.3235914223
S111  397585.8660298552 2181684.3235914223
S111  397583.8965298554 2181684.3235914223
S111 397581.92692985677 2181684.3235914223
S111   397579.957329856 2181684.3235914223
S111   397579.957329856 2181686.2930914243
S111  397578.3160298571 2181686.2930914243
S111 397576.67472985823 2181686.2930914243
S111 397575.03342985717 2181686.2930914243
S111  397573.3921298583 2181686.2930914243
S111  397571.7508298572 2181686.2930914243
S111  397570.1095298561 2181686.2930914243
S111  397570.1095298561 2181687.2778914226
S111  397570.1095298561  2181688.262691423
S111 397568.14002985635  2181688.262691423
S111  397566.1704298555  2181688.262691423
S111  397564.2009298557  2181688.262691423
S111  397562.2313298571  2181688.262691423
S111  397560.2617298585  2181688.262691423
S111  397560.2617298563 2181689.2474914235
S111  397560.2617298563  2181690.232191423
S111  397558.6204298574  2181690.232191423
S111 397556.97912985634  2181690.232191423
S111  397555.3378298575  2181690.232191423
S111  397553.6965298564  2181690.232191423
S111  397552.0552298575  2181690.232191423
S111 397550.41392985644  2181690.232191423
S111 397550.41392985644  2181692.201791424
S111 397548.44442985667  2181692.201791424
S111 397546.47482985584  2181692.201791424
S111   397544.505329856  2181692.201791424
S111  397542.5357298574  2181692.201791424
S111 397540.56612985657  2181692.201791424
S111 397540.56612985657  2181693.186591424
S111 397540.56612985657 2181694.1713914224
S111  397538.9248298577 2181694.1713914243
S111 397537.28352985665 2181694.1713914243
S111  397535.6422298556 2181694.1713914224
S111  397534.0009298567 2181694.1713914224
S111  397532.3596298578 2181694.1713914243
S111 397530.71832985675 2181694.1713914224
S111 397530.71832985675 2181696.1408914244
S111   397528.748829857  2181696.140891422
S111 397526.77922985615 2181696.1408914244
S111 397524.80972985853 2181696.1408914244
S111  397522.8401298555 2181696.1408914244
S111  397520.8706298557  2181696.140891422
S111 397520.87062985793 2181697.1256914223
S111 397520.87062985793  2181698.110491423
S111  397519.5575298578  2181698.110491423
S111  397518.2445298564  2181698.110491423
S111  397516.9314298563  2181698.110491423
S111  397516.9314298563 2181697.1256914223
S111  397516.9314298563 2181696.1408914244
S111  397514.9619298565 2181696.1408914244
S111  397514.9619298565 2181694.1713914243
S111  397514.9619298565  2181692.201791424
S111  397514.9619298565  2181690.232191423
S111  397512.9923298579  2181690.232191423
S111  397512.9923298557 2181688.6565914233
S111  397512.9923298557  2181687.080891423
S111  397512.9923298557 2181685.5052914238
S111  397512.9923298579 2181683.9295914234
S111  397512.9923298557 2181682.3539914237
S111 397512.00752985745 2181682.3539914237
S111 397511.02282985806 2181682.3539914237
S111 397511.02282985585 2181680.8767914223
S111 397511.02282985585 2181679.3996914234
S111 397511.02282985585 2181677.9224914243
S111 397511.02282985585 2181676.4452914223
S111   397509.053229855 2181676.4452914223
S111 397509.05322985724 2181674.4757914227
S111 397509.05322985724  2181672.506191424
S111 397509.05322985724  2181670.536591423
S111 397508.06842985685  2181670.536591423
S111  397507.0836298542  2181670.536591423
S111 397507.08362985647 2181669.2235914217
S111 397507.08362985647 2181667.9105914226
S111 397507.08362985647 2181666.5974914227
S111 397505.11412985664 2181666.5974914227
S111   397503.144529858 2181666.5974914227
S111  397503.1445298558  2181667.582291423
S111   397503.144529858 2181668.5670914236
S111 397501.50322985696 2181668.5670914236
S111  397499.8619298581 2181668.5670914236
S111   397498.220629857 2181668.5670914236
S111  397496.5793298559 2181668.5670914236
S111 397494.93802985706 2181668.5670914236
S111   397493.296729856 2181668.5670914236
S111   397493.296729856 2181669.5518914238
S111   397493.296729856  2181670.536591423
S111 397491.32722985616  2181670.536591423
S111 397489.35762985755  2181670.536591423
S111  397487.3880298568  2181670.536591423
S111 397485.41852985695  2181670.536591423
S111  397483.4489298561  2181670.536591423
S111  397483.4489298561 2181671.5213914234
S111  397483.4489298561  2181672.506191424
S111 397481.47942985635  2181672.506191424
S111 397479.50982985774 2181672.5061914218
S111  397477.5402298569  2181672.506191424
S111 397475.57072985714  2181672.506191424
S111 397475.57072985714 2181674.4757914227
S111   397473.929429856 2181674.4757914227
S111 397472.28812985716 2181674.4757914227
S111  397470.6468298561 2181674.4757914227
S111 397469.00552985724 2181674.4757914227
S111  397467.3642298561 2181674.4757914227
S111 397465.72292985726 2181674.4757914227
S111 397465.72292985726  2181675.460491424
S111 397465.72292985726 2181676.4452914223
S111 397463.75332985644 2181676.4452914223
S111 397461.78382985666 2181676.4452914223
S111 397459.81422985584 2181676.4452914246
S111  397457.8446298572 2181676.4452914223
S111  397457.8446298572  2181678.414891423
S111 397456.20332985616  2181678.414891423
S111 397454.56202985725  2181678.414891423
S111  397452.9207298562  2181678.414891423
S111  397451.2794298573  2181678.414891423
S111 397449.63812985626  2181678.414891423
S111 397447.99682985735  2181678.414891423
S111  397447.9968298596 2181679.3996914234
S111 397447.99682985735  2181680.384391423
S111  397446.0273298576  2181680.384391423
S111 397444.05772985675  2181680.384391423
S111   397442.088229857  2181680.384391423
S111 397440.11862985615  2181680.384391423
S111 397438.14902985754  2181680.384391423
S111 397438.14902985754 2181681.3691914235
S111 397438.14902985754 2181682.3539914237
S111  397436.5734298559 2181682.3539914237
S111  397434.9977298555 2181682.3539914237
S111  397433.4221298561 2181682.3539914237
S111 397431.84652985673 2181682.3539914237
S111  397430.2708298563 2181682.3539914237
S111  397430.2708298563 2181683.3387914244
S111  397430.2708298563 2181684.3235914223
S111 397428.30122985545 2181684.3235914223
S111  397426.3317298557 2181684.3235914223
S111 397424.36212985707 2181684.3235914223
S111  397422.3926298573 2181684.3235914246
S111 397420.42302985647 2181684.3235914223
S111 397420.42302985647 2181686.2930914243
S111 397418.84742985707 2181686.2930914243
S111  397417.2717298566 2181686.2930914243
S111  397415.6961298572 2181686.2930914243
S111  397414.1204298568 2181686.2930914224
S111  397412.5448298574 2181686.2930914243
S111  397412.5448298574 2181687.2778914226
S111  397412.5448298574  2181688.262691423
S111  397410.5752298566  2181688.262691423
S111   397408.605629858  2181688.262691423
S111  397406.6361298582  2181688.262691423
S111  397404.6665298574  2181688.262691423
S111  397402.6970298576  2181688.262691423
S111  397402.6970298576 2181689.2474914235
S111 397402.69702985534  2181690.232191423
S111  397401.0557298565  2181690.232191423
S111  397399.4144298576  2181690.232191423
S111 397397.77312985656  2181690.232191423
S111 397396.13182985544  2181690.232191423
S111  397394.4905298566  2181690.232191423
S111 397392.84922985773  2181690.232191423
S111 397392.84922985773  2181692.201791424
S111  397390.8796298569  2181692.201791424
S111  397388.9100298583  2181692.201791424
S111  397386.9405298563  2181692.201791424
S111  397384.9709298577  2181692.201791424
S111  397384.9709298555  2181693.186591424
S111  397384.9709298555 2181694.1713914224
S111  397383.3296298566 2181694.1713914224
S111  397381.6883298577 2181694.1713914224
S111 397380.04702985665 2181694.1713914224
S111  397378.4057298556 2181694.1713914224
S111 397376.76442985673 2181694.1713914224
S111  397375.1231298556 2181694.1713914224
S111  397375.1231298556 2181696.1408914244
S111 397373.15362985583  2181696.140891422
S111  397371.1840298572 2181696.1408914244
S111 397369.21452985745 2181696.1408914244
S111  397367.2449298566 2181696.1408914244
S111  397365.2753298558 2181696.1408914244
S111  397365.2753298558 2181697.1256914223
S111   397365.275329858  2181698.110491423
S111  397363.3058298582  2181698.110491423
S111 397361.33622985514  2181698.110491423
S111  397359.3667298576  2181698.110491423
S111 397357.39712985454  2181698.110491423
S111 397357.39712985675  2181699.095291423
S111 397357.39712985675 2181700.0799914226
S111  397355.7558298579 2181700.0799914226
S111 397354.11452985683 2181700.0799914226
S111  397352.4732298557 2181700.0799914226
S111 397350.83192985685 2181700.0799914226
S111   397349.190629858 2181700.0799914226
S111 397347.54932985693 2181700.0799914226
S111 397347.54932985693 2181702.0495914235
S111  397345.5797298583 2181702.0495914235
S111  397343.6102298585 2181702.0495914235
S111 397341.64062985545 2181702.0495914235
S111  397339.6711298579 2181702.0495914235
S111  397339.6711298579 2181703.0343914237
S111  397339.6711298579 2181704.0191914244
S111  397338.0298298568 2181704.0191914244
S111  397336.3885298557 2181704.0191914244
S111 397334.74722985685 2181704.0191914244
S111   397333.105929858 2181704.0191914244
S111  397331.4646298569 2181704.0191914244
S111  397329.8233298558 2181704.0191914244
S111   397329.823329858  2181705.003891424
S111  397329.8233298558  2181705.988691424
S111 397327.85372985725  2181705.988691424
S111  397325.8841298564  2181705.988691424
S111  397323.9146298566 2181705.9886914217
S111 397321.94502985576  2181705.988691424
S111  397319.9755298582  2181705.988691424
S111   397319.975529856  2181707.958291425
S111  397318.4983298565 2181707.9582914226
S111  397317.0211298592 2181707.9582914226
S111  397315.5440298563  2181707.958291425
S111  397314.0668298568  2181707.958291425
S111  397314.0668298568 2181708.9430914233
S111  397314.0668298568 2181709.9277914227
S111 397312.75372985663 2181709.9277914227
S111  397311.4407298575 2181709.9277914227
S111  397310.1277298561 2181709.9277914227
S111  397310.1277298561  2181711.897391423
S111 397308.15812985756  2181711.897391423
S111 397306.18852985674  2181711.897391423
S111 397306.18852985674  2181712.882191424
S111 397306.18852985674  2181713.866991424
S111  397304.8755298554  2181713.866991424
S111  397303.5625298562  2181713.866991424
S111  397302.2494298561  2181713.866991422
S111  397302.2494298561 2181714.8516914234
S111  397302.2494298561  2181715.836491422
S111  397300.2799298563  2181715.836491422
S111  397298.3103298577  2181715.836491424
S111  397298.3103298555 2181716.8212914243
S111  397298.3103298577 2181717.8060914227
S111  397296.9973298563 2181717.8060914227
S111  397295.6842298562 2181717.8060914227
S111  397294.3712298571 2181717.8060914227
S111  397294.3712298549 2181719.7755914247
S111 397293.05812985695 2181719.7755914223
S111  397291.7451298556 2181719.7755914223
S111 397290.43212985643 2181719.7755914247
S111 397290.43212985643 2181720.7603914225
S111 397290.43212985643  2181721.745191423
S111  397289.1190298563  2181721.745191423
S111  397287.8060298572  2181721.745191423
S111 397286.49292985705  2181721.745191423
S111 397286.49292985705  2181723.714791422
S111  397284.5234298572  2181723.714791422
S111  397282.5538298564  2181723.714791424
S111  397282.5538298564 2181724.6994914236
S111  397282.5538298564 2181725.6842914238
S111  397281.2408298573 2181725.6842914238
S111 397279.92772985715 2181725.6842914238
S111   397278.614729858 2181725.6842914238
S111  397278.6147298558  2181726.669091422
S111   397278.614729858 2181727.6538914246
S111  397276.6451298572 2181727.6538914246
S111 397274.67562985513 2181727.6538914223
S111  397274.6756298574  2181728.638691423
S111  397274.6756298574 2181729.6233914243
S111  397273.1984298579 2181729.6233914243
S111 397271.72122985614 2181729.6233914243
S111  397270.2441298554 2181729.6233914243
S111  397268.7669298559 2181729.6233914224
S111  397268.7669298559  2181731.592991423
S111  397267.4539298568  2181731.592991423
S111  397266.1408298567  2181731.592991423
S111  397264.8278298553  2181731.592991423
S111 397264.82782985753 2181732.5777914235
S111  397264.8278298553 2181733.5625914237
S111  397262.8582298567 2181733.5625914237
S111 397260.88872985693 2181733.5625914237
S111 397260.88872985693  2181734.547291423
S111 397260.88872985693  2181735.532091424
S111  397259.5756298568  2181735.532091424
S111 397258.26262985764  2181735.532091424
S111  397256.9495298575  2181735.532091424
S111  397256.9495298553 2181737.5016914224
S111 397255.63652985834 2181737.5016914224
S111 397254.32352985704 2181737.5016914224
S111  397253.0104298569 2181737.5016914224
S111  397253.0104298569 2181738.4864914226
S111  397253.0104298569 2181739.4711914244
S111 397251.04092985706  2181739.471191422
S111 397249.07132985623  2181739.471191422
S111 397249.07132985623  2181741.440791423
S111 397247.75832985714 2181741.4407914253
S111   397246.445229857  2181741.440791423
S111 397245.13222985563  2181741.440791423
S111 397245.13222985563  2181742.425591423
S111 397245.13222985563  2181743.410391424
S111  397243.8192298565  2181743.410391424
S111 397242.50612985634  2181743.410391424
S111 397241.19312985725  2181743.410391424
S111 397241.19312985725 2181744.3950914233
S111 397241.19312985725 2181745.3798914235
S111  397239.2235298564 2181745.3798914235
S111  397237.2540298566 2181745.3798914235
S111  397237.2540298566 2181746.3646914237
S111  397237.2540298566 2181747.3494914244
S111 397235.94092985644 2181747.3494914244
S111 397234.62792985735 2181747.3494914244
S111  397233.3148298572 2181747.3494914244
S111  397233.3148298572 2181749.3189914217
S111  397231.3453298574  2181749.318991424
S111 397229.37572985655 2181749.3189914217
S111 397229.37572985655 2181750.3037914224
S111 397229.37572985655 2181751.2885914226
S111 397228.06272985745 2181751.2885914226
S111  397226.7496298573 2181751.2885914226
S111 397225.43662985816 2181751.2885914226
S111 397225.43662985595 2181753.2581914235
S111  397224.1236298568 2181753.2581914235
S111 397222.81052985665 2181753.2581914235
S111 397221.49752985756 2181753.2581914235
S111 397221.49752985756  2181754.242891423
S111 397221.49752985756  2181755.227691423
S111 397219.52792985673  2181755.227691423
S111  397217.5584298569  2181755.227691423
S111  397217.5584298569  2181757.197291424
S111 397216.24532985676  2181757.197291424
S111  397214.9323298554  2181757.197291424
S111  397213.6192298575  2181757.197291424
S111 397213.61922985525 2181758.1820914224
S111 397213.61922985525  2181759.166791424
S111  397211.6497298555  2181759.166791424
S111 397209.68012985686  2181759.166791422
S111 397209.68012985686 2181761.1363914227
S111  397208.3671298555 2181761.1363914227
S111  397207.0540298576 2181761.1363914227
S111 397205.74102985626 2181761.1363914227
S111 397205.74102985626  2181762.121191423
S111 397205.74102985626 2181763.1059914236
S111  397204.4280298571 2181763.1059914236
S111 397203.11492985697 2181763.1059914236
S111  397201.8019298556 2181763.1059914236
S111  397201.8019298579 2181765.0754914233
S111 397200.48882985546 2181765.0754914233
S111 397199.17582985637 2181765.0754914233
S111  397197.8628298572 2181765.0754914233
S111  397197.8628298572 2181766.0602914235
S111  397197.8628298572  2181767.045091422
S111  397195.8932298586  2181767.045091422
S111 397193.92362985556  2181767.045091424
S111 397193.92362985783 2181768.0297914236
S111 397193.92362985783  2181769.014591424
S111 397192.61062985647  2181769.014591424
S111  397191.2976298573  2181769.014591424
S111  397189.9845298572  2181769.014591424
S111  397189.9845298572 2181770.9841914224
S111  397188.0150298574 2181770.9841914224
S111  397186.0454298566 2181770.9841914224
S111  397186.0454298566  2181771.968991423
S111  397186.0454298566 2181772.9536914243
S111  397184.7324298574 2181772.9536914243
S111  397183.4193298573  2181772.953691422
S111  397182.1063298559 2181772.9536914243
S111  397182.1063298582 2181773.9384914227
S111  397182.1063298559  2181774.923291423
S111 397180.79322985804  2181774.923291423
S111  397179.4802298567  2181774.923291423
S111  397178.1672298553  2181774.923291423
S111  397178.1672298575  2181776.892891424
S111  397176.1976298567  2181776.892891424
S111  397174.2280298559  2181776.892891424
S111  397174.2280298559  2181777.877591423
S111 397174.22802985815 2181778.8623914234
S111  397172.2585298561 2181778.8623914234
S111  397172.2585298561  2181779.847191422
S111  397172.2585298561 2181780.8319914243
S111 397171.27372985566 2181780.8319914243
S111  397170.2889298553 2181780.8319914225
S111  397170.2889298575 2181782.8014914244
S111  397168.3194298577 2181782.8014914244
S111  397168.3194298577 2181783.7862914223
S111  397168.3194298555  2181784.771091423
S111  397166.3498298569  2181784.771091423
S111  397166.3498298569  2181786.740691424
S111 397165.36502985645  2181786.740691424
S111 397164.38022985606  2181786.740691424
S111 397164.38022985606  2181787.725391423
S111 397164.38022985606 2181788.7101914235
S111 397162.41072985623 2181788.7101914235
S111 397162.41072985623 2181789.6949914237
S111  397162.4107298585 2181790.6797914244
S111  397160.4411298577 2181790.6797914244
S111  397160.4411298577 2181791.6645914223
S111  397160.4411298554 2181792.6492914218
S111 397159.45632985723 2181792.6492914218
S111 397158.47162985784  2181792.649291424
S111 397158.47162985563 2181794.6188914226
S111  397156.5020298548 2181794.6188914226
S111   397156.502029857 2181795.6036914233
S111   397156.502029857 2181796.5884914235
S111  397154.5324298562 2181796.5884914235
S111  397154.5324298562  2181798.557991423
S111  397153.5477298568  2181798.557991423
S111  397152.5629298564  2181798.557991423
S111  397152.5629298564  2181799.542791424
S111  397152.5629298564  2181800.527591424
S111  397150.5933298578 2181800.5275914217
S111  397150.5933298556 2181801.5123914247
S111  397150.5933298556  2181802.497091424
S111 397148.62382985576  2181802.497091424
S111 397148.62382985576  2181803.481891422
S111   397148.623829858 2181804.4666914227
S111  397147.6390298576 2181804.4666914227
S111  397146.6542298572 2181804.4666914227
S111  397146.6542298572  2181806.436291423
S111  397144.6846298564  2181806.436291423
S111  397144.6846298564 2181807.4209914226
S111  397144.6846298564 2181808.4057914233
S111 397142.71512985654 2181808.4057914233
S111 397142.71512985654  2181810.375391424
S111 397141.73032985616  2181810.375391424
S111   397140.745529858  2181810.375391424
S111   397140.745529858 2181811.3601914244
S111  397140.7455298557  2181812.344891424
S111 397138.77602985594  2181812.344891424
S111 397138.77602985816  2181813.329691422
S111 397138.77602985594 2181814.3144914224
S111 397136.80642985733 2181814.3144914224
S111 397136.80642985733 2181816.2840914233
S111  397134.8368298565 2181816.2840914233
S111  397134.8368298565 2181817.2687914227
S111  397134.8368298565  2181818.253591423
S111  397133.8521298571  2181818.253591423
S111 397132.86732985673  2181818.253591423
S111  397132.8673298545 2181819.2383914236
S111 397132.86732985673  2181820.223191424
S111  397130.8977298559  2181820.223191424
S111  397130.8977298559  2181821.207991422
S111  397130.8977298581 2181822.1926914235
S111  397128.9282298561 2181822.1926914235
S111  397128.9282298561 2181824.1622914243
S111  397126.9586298575 2181824.1622914243
S111  397126.9586298575 2181825.1470914227
S111  397126.9586298553  2181826.131891423
S111  397125.9738298571  2181826.131891423
S111  397124.9890298567  2181826.131891423
S111  397124.9890298589  2181828.101391423
S111 397123.01952985686  2181828.101391423
S111 397123.01952985686 2181829.0861914232
S111 397123.01952985686  2181830.070991424
S111 397121.04992985603  2181830.070991424
S111 397121.04992985603 2181832.0404914236
S111 397120.06512985565 2181832.0404914236
S111 397119.08042985626 2181832.0404914236
S111 397119.08042985626  2181833.025291424
S111 397119.08042985626  2181834.010091422
S111 397117.11082985764  2181834.010091422
S111 397117.11082985764  2181835.979691423
S111 397116.12602985505  2181835.979691423
S111  397115.1412298568  2181835.979691423
S111  397115.1412298568 2181836.9643914243
S111  397115.1412298568 2181837.9491914227
S111 397113.17172985704 2181837.9491914227
S111 397113.17172985704 2181839.9187914236
S111 397113.17172985704  2181841.888291423
S111 397111.20212985843  2181841.888291423
S111  397111.2021298562  2181843.857891424
S111  397110.2174298568  2181843.857891424
S111  397109.2326298564  2181843.857891424
S111  397109.2326298564 2181844.8426914224
S111 397109.23262985866 2181845.8274914226
S111 397107.26302985783 2181845.8274914226
S111 397107.26302985783 2181846.8121914244
S111 397107.26302985783  2181847.796991423
S111   397105.293529858  2181847.796991423
S111  397105.2935298558  2181848.781791423
S111   397105.293529858  2181849.766591423
S111 397103.32392985496  2181849.766591423
S111  397103.3239298572 2181851.7360914233
S111  397102.3391298568 2181851.7360914233
S111 397101.35432985635 2181851.7360914233
S111 397101.35432985635 2181852.7208914235
S111 397101.35432985635  2181853.705691424
S111  397099.3848298566  2181853.705691424
S111  397099.3848298566 2181855.6752914228
S111 397097.41522985796 2181855.6752914228
S111 397097.41522985796  2181856.659991424
S111 397097.41522985796 2181857.6447914224
S111 397096.43042985536 2181857.6447914224
S111  397095.4457298582 2181857.6447914224
S111  397095.4457298582 2181858.6295914226
S111  397095.4457298582 2181859.6143914233
S111 397093.47612985736 2181859.6143914233
S111 397093.47612985736  2181861.583891423
S111 397091.50652985653  2181861.583891423
S111 397091.50652985653 2181862.5686914236
S111 397091.50652985653  2181863.553491424
S111  397089.5370298567  2181863.553491424
S111  397089.5370298567  2181864.538291422
S111  397089.5370298567 2181865.5230914224
S111  397088.5522298563 2181865.5230914224
S111  397087.5674298559 2181865.5230914224
S111  397087.5674298559  2181866.507791424
S111  397087.5674298559 2181867.4925914244
S111  397085.5979298583  2181867.492591422
S111  397085.5979298583  2181869.462191423
S111  397083.6283298575  2181869.462191423
S111  397083.6283298575 2181870.4469914236
S111  397083.6283298575  2181871.431691423
S111  397082.6435298571  2181871.431691423
S111 397081.65872985666  2181871.431691423
S111 397081.65872985666 2181873.4012914235
S111  397079.6892298569 2181873.4012914235
S111  397079.6892298569  2181874.386091424
S111  397079.6892298569 2181875.3708914244
S111 397077.71962985606 2181875.3708914244
S111 397077.71962985606  2181876.355591424
S111 397077.71962985606 2181877.3403914245
S111  397076.7348298579  2181877.340391422
S111  397075.7501298562  2181877.340391422
S111  397075.7501298562 2181878.3251914224
S111  397075.7501298562  2181879.309991423
S111 397073.78052985546  2181879.309991423
S111 397073.78052985546 2181881.2794914227
S111 397072.79572985723 2181881.2794914227
S111 397071.81092985685 2181881.2794914227
S111 397071.81092985685  2181882.264291423
S111 397071.81092985685 2181883.2490914236
S111   397069.841429857 2181883.2490914236
S111   397069.841429857  2181885.218691422
S111  397067.8718298562 2181885.2186914245
S111 397067.87182985846  2181886.203391424
S111  397067.8718298562  2181887.188191424
S111  397065.9023298564  2181887.188191424
S111  397065.9023298564 2181889.1577914227
S111  397065.9023298564 2181891.1272914223
S111   397064.917529856 2181891.1272914247
S111  397063.9327298556 2181891.1272914223
S111  397063.9327298556  2181892.112091423
S111  397063.9327298578  2181893.096891423
S111   397061.963129857  2181893.096891423
S111   397061.963129857  2181894.081691424
S111   397061.963129857  2181895.066491422
S111  397059.9936298572  2181895.066491424
S111  397059.9936298572  2181897.035991422
S111 397059.00882985676  2181897.035991424
S111  397058.0240298564  2181897.035991424
S111  397058.0240298564  2181898.349091424
S111  397058.0240298564 2181899.6620914233
S111  397058.0240298564 2181900.9750914224
S111 397056.05452985654 2181900.9750914224
S111 397056.05452985654 2181902.9446914233
S111  397054.0849298558 2181902.9446914233
S111  397054.0849298558 2181903.9294914235
S111  397054.0849298558  2181904.914191423
S111 397052.11532985716  2181904.914191423
S111 397052.11532985716  2181906.883791424
S111 397051.13062985777  2181906.883791424
S111  397050.1458298573  2181906.883791424
S111  397050.1458298551  2181908.196791423
S111  397050.1458298551  2181909.509891423
S111  397050.1458298573  2181910.822891422
S111  397048.1762298565 2181910.8228914244
S111  397048.1762298565 2181911.8076914228
S111  397048.1762298565  2181912.792491423
S111  397046.2067298567  2181912.792491423
S111 397046.20672985894  2181914.761991423
S111  397045.2219298563  2181914.761991423
S111  397044.2371298559  2181914.761991423
S111  397044.2371298559 2181915.7467914233
S111  397044.2371298559 2181916.7315914235
S111  397042.2675298573 2181916.7315914235
S111  397042.2675298573  2181918.701191422
S111  397040.2980298553  2181918.701191422
S111  397040.2980298553 2181920.0141914235
S111  397040.2980298575 2181921.3271914227
S111  397040.2980298575  2181922.640291423
S111 397039.31322985707  2181922.640291423
S111  397038.3284298567  2181922.640291423
S111  397038.3284298567 2181923.6250914233
S111  397038.3284298567 2181924.6097914227
S111 397036.35892985685 2181924.6097914227
S111 397036.35892985685 2181926.5793914236
S111   397034.389329856 2181926.5793914236
S111  397034.3893298583  2181927.564191424
S111  397034.3893298583  2181928.548991422
S111 397033.40452985786 2181928.5489914245
S111  397032.4197298575  2181928.548991422
S111  397032.4197298575  2181930.518491422
S111  397032.4197298575 2181932.4880914227
S111 397030.45022985764 2181932.4880914227
S111 397030.45022985764 2181933.4728914234
S111 397030.45022985764 2181934.4575914224
S111  397028.4806298568 2181934.4575914224
S111  397028.4806298568 2181936.4271914233
S111 397027.49582985643 2181936.4271914233
S111 397026.51112985704 2181936.4271914233
S111 397026.51112985704  2181937.411991424
S111 397026.51112985704  2181938.396791422
S111  397024.5415298562  2181938.396791424
S111  397024.5415298584  2181940.366291422
S111  397024.5415298562  2181942.335891423
S111  397022.5719298554  2181942.335891423
S111  397022.5719298554  2181943.320691423
S111  397022.5719298576 2181944.3053914225
S111   397021.587229856 2181944.3053914225
S111  397020.6024298556 2181944.3053914225
S111  397020.6024298556 2181945.2901914227
S111  397020.6024298556 2181946.2749914234
S111   397018.632829857 2181946.2749914234
S111   397018.632829857 2181948.2445914242
S111 397016.66332985717 2181948.2445914242
S111 397016.66332985496 2181949.5575914234
S111 397016.66332985717 2181950.8705914244
S111 397016.66332985717 2181952.1836914225
S111 397014.69372985634 2181952.1836914225
S111 397014.69372985634 2181953.1684914227
S111 397014.69372985634 2181954.1531914244
S111 397013.70892985596 2181954.1531914244
S111  397012.7241298556 2181954.1531914244
S111  397012.7241298556  2181956.122791423
S111 397010.75462985574  2181956.122791423
S111 397010.75462985795 2181957.1075914237
S111 397010.75462985574  2181958.092391424
S111  397008.7850298571  2181958.092391424
S111  397008.7850298571 2181960.0618914235
S111 397007.80022985674 2181960.0618914235
S111 397006.81552985735 2181960.0618914235
S111 397006.81552985735  2181961.374991424
S111 397006.81552985735  2181962.687991423
S111 397006.81552985514  2181964.000991422
S111  397004.8459298565 2181964.0009914245
S111  397004.8459298565  2181965.970591423
S111  397002.8763298557  2181965.970591423
S111  397002.8763298557 2181966.9553914233
S111  397002.8763298579 2181967.9401914235
S111  397001.8916298563 2181967.9401914235
S111  397000.9068298559 2181967.9401914235
S111  397000.9068298559  2181968.924891423
S111  397000.9068298559 2181969.9096914236
S111  396998.9372298573 2181969.9096914236
S111  396998.9372298573  2181971.879291422
S111  396998.9372298573  2181973.848791424
S111  396996.9677298575  2181973.848791424
S111 396996.96772985527 2181975.8183914227
S111 396994.99812985666 2181975.8183914227
S111 396994.99812985666  2181976.803191423
S111 396994.99812985666 2181977.7879914236
S111  396994.0133298563 2181977.7879914236
S111  396993.0285298581 2181977.7879914236
S111  396993.0285298559  2181978.772691423
S111  396993.0285298559 2181979.7574914233
S111 396991.05902985606 2181979.7574914233
S111 396991.05902985606  2181981.727091422
S111 396991.05902985827  2181983.696591424
S111 396989.08942985523  2181983.696591424
S111 396989.08942985523  2181984.681391422
S111 396989.08942985744 2181985.6661914224
S111 396988.10462985706 2181985.6661914224
S111 396987.11992985767 2181985.6661914224
S111 396987.11992985767 2181987.6357914233
S111 396985.15032985684 2181987.6357914233
S111 396985.15032985684 2181988.6204914227
S111 396985.15032985684 2181989.6052914234
S111  396984.1655298564 2181989.6052914234
S111   396983.180729856 2181989.6052914234
S111   396983.180729856 2181990.5900914236
S111   396983.180729856 2181991.5748914243
S111 396981.21122985624 2181991.5748914243
S111 396981.21122985624  2181993.544391424
S111 396981.21122985624  2181995.513991425
S111  396979.2416298576 2181995.5139914225
S111  396979.2416298554 2181996.4987914227
S111  396979.2416298576 2181997.4835914234
S111  396977.2721298556 2181997.4835914234
S111  396977.2721298578  2181998.468291423
S111  396977.2721298578  2181999.453091423
S111  396976.2873298552  2181999.453091423
S111 396975.30252985697  2181999.453091423
S111 396975.30252985697  2182001.422691424
S111  396973.3330298594  2182001.422691424
S111  396973.3330298572 2182003.3921914236
S111   396973.333029855 2182005.3617914245
S111 396971.36342985637  2182005.361791422
S111 396971.36342985637  2182006.346591423
S111 396971.36342985637  2182007.331391423
S111  396970.3786298582  2182007.331391423
S111 396969.39382985776  2182007.331391423
S111 396969.39382985554 2182008.3160914225
S111 396969.39382985776  2182009.300891423
S111 396967.42432985577  2182009.300891423
S111   396967.424329858 2182011.2704914236
S111 396965.45472985716 2182011.2704914217
S111 396965.45472985716 2182012.5834914227
S111 396965.45472985716  2182013.896591423
S111 396965.45472985716 2182015.2095914246
S111  396964.4699298567  2182015.209591422
S111  396963.4852298573  2182015.209591422
S111  396963.4852298573  2182017.179191423
S111  396961.5156298565  2182017.179191423
S111  396961.5156298565 2182018.1638914244
S111  396961.5156298565  2182019.148691423
S111 396959.54602985794  2182019.148691423
S111 396959.54602985573 2182021.1182914237
S111  396957.5765298559 2182021.1182914213
S111  396957.5765298559  2182022.103091424
S111  396957.5765298559 2182023.0877914233
S111  396956.5917298555 2182023.0877914233
S111  396955.6069298573 2182023.0877914233
S111  396955.6069298573 2182024.4008914237
S111  396955.6069298573  2182025.713891423
S111  396955.6069298551 2182027.0269914228
S111  396953.6374298553 2182027.0269914228
S111  396953.6374298575 2182028.9964914247
S111  396951.6678298567 2182028.9964914247
S111  396951.6678298567  2182029.981291423
S111  396951.6678298567 2182030.9660914233
S111  396950.6830298563 2182030.9660914233
S111 396949.69822985807 2182030.9660914233
S111 396949.69822985586 2182032.9355914234
S111 396949.69822985586  2182034.905191424
S111  396947.7287298561  2182034.905191424
S111  396947.7287298561  2182035.889991422
S111  396947.7287298561  2182036.874791423
S111 396945.75912985747  2182036.874791423
S111 396945.75912985747  2182037.859491424
S111 396945.75912985747 2182038.8442914225
S111   396944.774329857 2182038.8442914225
S111 396943.78962985764 2182038.8442914225
S111  396943.7896298554 2182040.8138914234
S111 396943.78962985764  2182042.783391423
S111  396941.8200298568  2182042.783391423
S111  396941.8200298568 2182043.7681914233
S111  396941.8200298568  2182044.752991424
S111 396939.85042985604  2182044.752991424
S111 396939.85042985604 2182046.7224914236
S111 396938.86572985665 2182046.7224914236
S111  396937.8809298562 2182046.7224914236
S111  396937.8809298562  2182048.692091422
S111  396937.8809298562  2182050.661691423
S111  396935.9113298554  2182050.661691423
S111  396935.9113298554 2182051.6463914225
S111  396935.9113298554 2182052.6311914227
S111  396933.9418298556 2182052.6311914227
S111  396933.9418298556 2182053.6159914234
S111  396933.9418298578 2182054.6007914236
S111  396932.9570298574 2182054.6007914217
S111   396931.972229857 2182054.6007914236
S111   396931.972229857 2182056.5702914237
S111   396931.972229857 2182058.5398914223
S111  396930.0026298562  2182058.539891424
S111  396930.0026298562 2182059.5246914225
S111  396930.0026298562  2182060.509491423
S111  396928.0331298564  2182060.509491423
S111  396928.0331298564  2182062.478991423
S111 396927.04832985596  2182062.478991423
S111  396926.0635298556  2182062.478991423
S111  396926.0635298578  2182063.463791423
S111  396926.0635298556 2182064.4485914237
S111 396924.09402985574 2182064.4485914237
S111 396924.09402985795 2182066.4180914233
S111 396924.09402985795  2182068.387691422
S111  396922.1244298571  2182068.387691424
S111  396922.1244298571 2182069.3724914244
S111  396922.1244298571  2182070.357291423
S111  396920.1548298563  2182070.357291423
S111  396920.1548298563  2182071.341991422
S111  396920.1548298563 2182072.3267914224
S111  396919.1701298569 2182072.3267914224
S111  396918.1853298565 2182072.3267914224
S111  396918.1853298565 2182074.2963914233
S111  396918.1853298565 2182076.2658914234
S111  396916.2157298579 2182076.2658914234
S111  396916.2157298579 2182077.2506914237
S111  396916.2157298557  2182078.235491424
S111 396914.24622985814  2182078.235491424
S111  396914.2462298559 2182080.2050914224
S111  396912.2766298573 2182080.2050914224
S111  396912.2766298573  2182081.518091424
S111  396912.2766298573  2182082.831091423
S111  396912.2766298573 2182084.1441914234
S111 396911.29182985687 2182084.1441914234
S111  396910.3070298587 2182084.1441914234
S111  396910.3070298565  2182086.113691423
S111  396908.3375298567  2182086.113691423
S111  396908.3375298567 2182087.0984914233
S111  396908.3375298567  2182088.083291424
S111  396906.3679298581  2182088.083291424
S111  396906.3679298559 2182090.0528914225
S111  396906.3679298559 2182092.0223914245
S111 396905.38312985766 2182092.0223914245
S111 396904.39842985605  2182092.022391422
S111 396904.39842985605  2182093.007191423
S111 396904.39842985605  2182093.991991423
S111  396902.4288298552  2182093.991991423
S111 396902.42882985744 2182095.9614914227
S111 396901.44402985706 2182095.9614914227
S111  396900.4592298566 2182095.9614914227
S111  396900.4592298566 2182096.9462914234
S111  396900.4592298566 2182097.9310914236
S111 396898.48972985684 2182097.9310914236
S111 396898.48972985684 2182099.2440914228
S111 396898.48972985684  2182100.557191423
S111 396898.48972985684 2182101.8701914223
S111   396896.520129856 2182101.8701914223
S111   396896.520129856  2182103.839791423
S111 396895.53532985784  2182103.839791423
S111 396894.55062985624  2182103.839791423
S111 396894.55062985624 2182104.8245914234
S111 396894.55062985624  2182105.809291423
S111  396892.5810298576  2182105.809291423
S111  396892.5810298576 2182107.7788914237
S111  396892.5810298576 2182109.7484914223
S111  396890.6114298568 2182109.7484914223
S111  396890.6114298568 2182110.7331914236
S111  396890.6114298568 2182111.7179914243
S111 396888.64192985697 2182111.7179914243
S111 396888.64192985697 2182112.7027914245
S111 396888.64192985697  2182113.687591423
S111  396887.6571298544  2182113.687591423
S111  396886.6723298562  2182113.687591423
S111  396886.6723298562 2182115.6570914225
S111  396886.6723298584 2182117.6266914234
S111 396884.70282985637 2182117.6266914234
S111 396884.70282985637 2182119.5962914242
S111 396882.73322985775 2182119.5962914242
S111 396882.73322985775 2182120.5809914237
S111 396882.73322985775  2182121.565791424
S111 396881.74842985737  2182121.565791424
S111  396880.7636298569  2182121.565791424
S111  396880.7636298569 2182122.2785956813
S111  397033.0979317096  2182241.141933932
S111 397045.20432923705 2182232.3902814314
S111 397051.15130945883  2182213.606091586
S111 397060.22081898036 2182196.4661952984
S111  397037.5325222532 2182175.4432706856
S111 397029.73071282846 2182130.6385769355
S111 397067.65854105254  2182118.630498618
S111 397056.42745150096  2182075.769184553
S111  397055.8717389521 2182061.7469761563
S111  397063.2405261594  2182015.490874399
S111 397092.28441829863 2182008.5719017405
S111 397136.58281873725  2181960.761872446
S111  397151.3417243042 2181953.7965064305
S111 397168.53164500574 2181944.7010769364
S111 397201.08661082824  2181943.410785335
S111  397227.8517291864 2181963.9344761567
S111  397236.3399087769 2181963.5987794753
S111  397243.0757286974  2181991.876373421
S111 397280.63124969474   2181999.73400643
S111  397286.1513094602 2181953.6060915845
S111  397291.3417243037 2181943.7965064305
S111  397298.7465168819 2181928.1068077944
S111 397320.39141561155 2181928.9649849455
S111 397331.34172430355 2181923.7965064305
S111  397346.2398099497  2181907.717405648
S111 397418.85821404995 2181920.3626874853
S111 397438.74651688145 2181916.2012990066
S112 395816.75699893216 2183580.0725461477
S112  395738.8458989322  2183555.962046148
S112  395718.3873989322 2183597.2247461476
S112  395703.6763989322 2183626.8952461476
S112 395671.88809893216 2183701.7848461475
S112  395672.2596989322 2183701.8975461475
S112  395708.4789989322 2183710.2472461476
S112 395770.83019893215 2183730.6905461475
S112  395768.3896989322 2183738.6067461474
S112  395878.1766989322 2183771.8914461476
S112 395918.75959893217 2183727.3687461475
S112 395874.58029893215 2183597.9666461474
S112 395816.75699893216 2183580.0725461477
S113  396190.3642859386 2183771.1276278086
S113 396191.60966520227   2183706.00717116
S113  396149.6320497002 2183720.4822381223
S113 396148.56809771864 2183767.6318252273
S113 396182.15003844484  2183781.111630748
S113  396190.3642859386 2183771.1276278086
S114 396239.1250232539 2183844.219221888
S114 396192.9474232539 2183839.076921888
S114 396189.7394232539 2183843.375321888
S114 396168.7749232539 2183843.802621888
S114 396151.2965232539 2183864.436121888
S114 396164.5312232539 2183877.151421888
S114 396158.9281232539 2183884.658921888
S114 396165.1350232539 2183894.671021888
S114 396150.8824232539 2183908.364421888
S114 396151.6545232539 2183946.201321888
S114 396151.5501232539 2183951.317021888
S114 396200.8863232539 2183952.338721888
S114 396201.1061232539 2183952.539721888
S114 396251.0269232539 2183895.271921888
S114 396252.7443232539 2183845.735921888
S114 396239.1250232539 2183844.219221888
S115 395865.74370341963  2183941.913498491
S115  395878.1953443026  2183893.293587595
S115  395878.1767344541 2183771.8914753078
S115 395768.38970959873 2183738.6067175805
S115 395755.10229675967  2183781.707060983
S115 395702.79940929636 2183951.3606436793
S115  395798.9906546319 2183980.5773120937
S115 395865.74370341963  2183941.913498491
S116  395672.2597214296  2183701.897549227
S116  395671.8881214296  2183701.784849227
S116 395669.04312142957  2183708.487249227
S116  395616.2715214296  2183731.036549227
S116  395551.5413214296 2183905.4182492266
S116  395702.7994214296 2183951.3606492267
S116  395755.1023214296  2183781.707049227
S116  395768.3897214296  2183738.606749227
S116  395770.8302214296  2183730.690549227
S116  395708.4790214296  2183710.247249227
S116  395672.2597214296  2183701.897549227
S117 396083.84534451115  2183623.400964372
S117 396111.72194451117  2183518.000764372
S117 396089.73374451115 2183530.4989643716
S117  396055.1965445112  2183544.119764372
S117  396000.2489445112 2183571.5551643716
S117 395998.86854451115  2183575.534464372
S117 395948.47884451115 2183720.7859643716
S117  396031.9013445112  2183723.411064372
S117 396072.53674451116 2183666.1581643717
S117  396078.7113445112  2183642.812364372
S117 396083.84534451115  2183623.400964372
S118 396379.05040868704 2183637.2371322275
S118   396379.641108687  2183605.747232227
S118   396376.706408687 2183546.2068322273
S118   396550.304908687  2183460.998632227
S118   396413.358308687 2183269.1969322274
S118   396284.838908687 2183301.9995322274
S118   396229.643608687 2183326.8861322273
S118   396114.603608687  2183378.755732227
S118   396137.760508687 2183419.5503322273
S118   396111.722008687 2183518.0008322275
S118   396083.845408687  2183623.401032227
S118   396151.400108687 2183642.1297322274
S118   396216.270308687 2183643.8561322275
S118   396220.097308687 2183635.0398322274
S118   396236.051208687 2183644.3825322273
S118   396297.772508687  2183646.025132227
S118   396375.308008687 2183648.0908322274
S118 396379.05040868704 2183637.2371322275
S119  396148.5680584621 2183767.6318330257
S119  396149.6320584621  2183720.482233026
S119 396085.87595846213  2183742.467133026
S119  396052.4478584621  2183741.862033026
S119  396077.5262584621  2183812.561033026
S119 396147.52425846213  2183813.891333026
S119  396180.9223584621  2183814.526133026
S119  396182.1500584621  2183781.111633026
S119  396148.5680584621 2183767.6318330257
S121 396151.40003693156  2183642.129712408
S121  396083.8453369316 2183623.4010124076
S121 396078.71133693156 2183642.8124124077
S121  396072.5367369316 2183666.1581124077
S121 396113.96883693157  2183667.149212408
S121 396150.81563693157 2183668.0306124077
S121 396151.40003693156  2183642.129712408
S122 396205.23300304846 2183685.3343351437
S122 396205.21730304847 2183673.6712351437
S122  396177.8108030485 2183674.2311351434
S122  396150.7301030485 2183671.8226351435
S122  396150.8156030485 2183668.0306351436
S122  396113.9688030485 2183667.1492351433
S122  396072.5368030485 2183666.1581351436
S122  396031.9014030485 2183723.4110351433
S122  396052.4479030485 2183741.8620351437
S122  396085.8759030485 2183742.4671351435
S122  396149.6320030485 2183720.4822351434
S122  396191.6097030485 2183706.0071351435
S122 396205.23300304846 2183685.3343351437
S123  396297.3188862883  2183680.261615135
S123 396236.05118628836 2183644.3825151348
S123 396220.09728628834  2183635.039815135
S123 396216.27028628835  2183643.856115135
S123 396151.40008628834  2183642.129715135
S123 396150.81558628834 2183668.0306151346
S123 396150.73008628836  2183671.822615135
S123 396177.81078628835  2183674.231115135
S123 396205.21738628834 2183673.6712151347
S123  396205.2329862883 2183685.3343151347
S123 396212.04988628835 2183691.4300151346
S123 396274.02738628833  2183746.850415135
S123  396296.5158862883  2183740.867815135
S123 396351.18798628834 2183726.3233151347
S123 396352.81778628833  2183724.186215135
S123  396352.9766862883  2183712.855515135
S123  396297.3188862883  2183680.261615135
S124 396212.04985093616 2183691.4300322826
S124 396205.23295093613 2183685.3343322827
S124 396191.60965093615 2183706.0071322825
S124 396190.36425093614 2183771.1276322827
S124  396215.3037509361 2183770.7537322827
S124 396239.52525093616 2183770.3905322826
S124 396258.19645093614  2183770.110532283
S124 396269.35615093616 2183753.7139322828
S124 396274.02745093615  2183746.850432283
S124 396212.04985093616 2183691.4300322826
S125  396257.8431708112 2183842.056396991
S125  396258.1964708112 2183770.110596991
S125 396239.52527081117 2183770.390496991
S125  396215.3037708112 2183770.753696991
S125  396190.3642708112 2183771.127596991
S125  396182.1500708112 2183781.111596991
S125 396180.92237081117 2183814.526096991
S125  396192.9474708112 2183839.076896991
S125  396239.1250708112 2183844.219296991
S125  396252.7442708112 2183845.735896991
S125 396254.41377081117 2183844.531096991
S125  396257.8431708112 2183842.056396991
S126   396411.655048206 2183868.3724219347
S126 396412.17041255423 2183842.9291869984
S126  396349.2872065701  2183793.485105173
S126  396314.8323865844   2183844.06621327
S126  396329.2576469287  2183868.420359568
S126   396411.655048206 2183868.3724219347
S127 396410.90934480575  2183931.471068338
S127 396411.87244991056 2183868.8149519158
S127   396411.655048206 2183868.3724219347
S127  396329.2576469287  2183868.420359568
S127 396328.93608130154 2183931.5131666176
S127 396371.42751457065 2183963.6466370397
S127 396410.90934480575  2183931.471068338
S128 396225.5759373978 2182962.5280183484
S128 396208.8176373978 2182946.6928183483
S128 396148.2649373978  2182987.193418348
S128 396110.7907373978 2183116.6688183486
S128 396125.8926373978  2183121.137218348
S128 396179.4089373978  2183136.971918348
S128 396210.0812373978 2183147.0157183483
S128 396259.8965373978  2183053.500718348
S128 396271.4644373978  2183013.949718348
S128 396273.3116373978 2183007.6341183484
S128 396225.5759373978 2182962.5280183484
S130    396537.84078995  2183677.189253116
S130    396379.64108995 2183605.7472531158
S130    396379.05038995  2183637.237153116
S130 396401.92958994996  2183648.800053116
S130 396449.24938994995  2183672.715053116
S130    396450.03798995  2183672.754853116
S130    396537.84078995  2183677.189253116
S131 396296.1508109334 2183768.4182539866
S131 396296.5158109334 2183740.8678539866
S131 396274.0274109334  2183746.850453987
S131 396269.3561109334 2183753.7139539868
S131 396258.1965109334  2183770.110553987
S131 396257.8432109334 2183842.0563539867
S131 396278.0167109334 2183842.7678539865
S131 396295.1577109334  2183843.372353987
S131 396295.2766109334 2183834.3941539866
S131 396296.1508109334 2183768.4182539866
S132 396625.32754017174 2183481.7910585427
S132 396550.30490438687  2183460.998674288
S132  396376.7063653374  2183546.206885204
S132  396379.6410645669 2183605.7472704747
S132 396537.84078347794  2183677.189244066
S132  396538.4876074921  2183677.274312722
S132 396625.32754017174 2183481.7910585427
S133  396773.4579412016  2183467.115634217
S133 397513.90276484936  2183184.126568591
S133 396709.77320443274 2182967.7946261624
S133  396482.6174460899 2183080.6741085406
S133 396413.35829236393  2183269.196950977
S133 396550.30490438687  2183460.998674288
S133 396625.32754017174 2183481.7910585427
S133  396773.4579412016  2183467.115634217
S134  396686.0430400567 2183726.1675663646
S134  396773.4579412016  2183467.115634217
S134 396625.32754017174 2183481.7910585427
S134  396538.4876074921  2183677.274312722
S134 396536.06539807504 2183728.4552370715
S134  396686.0430400567 2183726.1675663646
S135 396297.7724906041 2183646.0251783575
S135  396236.051153513  2183644.382561227
S135  396297.318885162  2183680.261635512
S135 396297.7724906041 2183646.0251783575
S136 396520.29059257125 2183773.3245173483
S136 396477.27059257124 2183772.3108173483
S136 396449.13989257126 2183802.8260173486
S136 396412.17039257125 2183842.9292173483
S136  396411.6550925713 2183868.3724173484
S136 396411.87249257124 2183868.8149173483
S136 396448.67749257124 2183869.7833173485
S136  396532.7272925713  2183871.994817348
S136 396533.91099257127 2183868.1746173482
S136 396535.32339257124 2183797.9897173485
S136 396520.29059257125 2183773.3245173483
S137  396278.0167577069 2183842.7678534663
S137 396257.84315770684 2183842.0563534666
S137  396254.4137577069 2183844.5311534666
S137 396252.74425770686  2183845.735853466
S137 396251.02695770684 2183895.2719534663
S137 396294.10235770687 2183923.0169534665
S137  396310.4701577069 2183933.5594534664
S137 396328.93605770683 2183931.5131534664
S137 396329.25765770685 2183868.4203534666
S137 396314.83235770685 2183844.0662534665
S137  396295.1576577069  2183843.372353466
S137  396278.0167577069 2183842.7678534663
S138 396448.67753342516 2183869.7833814532
S138 396411.87243342516 2183868.8149814536
S138 396410.90933342517 2183931.4710814534
S138  396448.2110334251 2183937.3412814536
S138 396526.03413342516 2183949.5884814532
S138  396531.8494334251 2183939.9876814536
S138 396532.72723342513 2183871.9947814536
S138 396448.67753342516 2183869.7833814532
S139 396536.06539807504 2183728.4552370715
S139  396538.4876074921  2183677.274312722
S139 396537.84078347794  2183677.189244066
S139  396450.0380282135  2183672.754838049
S139  396449.8449421654 2183700.7174261077
S139 396451.06161843345  2183757.923428093
S139 396477.27055590565  2183772.310832078
S139  396520.2906217708 2183773.3245206093
S139 396536.06539807504 2183728.4552370715
S140 396401.92959183484   2183648.80006784
S140 396379.05039183487 2183637.2371678404
S140  396375.3078918348   2183648.09086784
S140  396297.7724918348 2183646.0251678405
S140  396297.3188918348   2183680.26166784
S140 396352.97669183486 2183712.8554678406
S140  396352.8177918348   2183724.18626784
S140  396449.4537918348 2183757.3712678403
S140  396451.0615918348 2183757.9234678405
S140 396449.84499183483 2183700.7174678403
S140 396450.03799183486 2183672.7548678406
S140 396449.24939183483 2183672.7149678404
S140 396401.92959183484   2183648.80006784
S141  396690.0882430674 2183809.6853024047
S141  396685.5910509391 2183803.0943905097
S141 396535.32340455346 2183797.9897092544
S141 396533.91102054145  2183868.174648083
S141 396665.95218033635  2183875.684636606
S141  396690.0882430674 2183809.6853024047
S142  396314.8323663798  2183844.066203339
S142  396349.2871663798  2183793.485103339
S142  396412.1703663798  2183842.929203339
S142  396449.1398663798  2183802.826003339
S142 396477.27056637977  2183772.310803339
S142  396451.0616663798  2183757.923403339
S142  396449.4537663798  2183757.371303339
S142  396352.8177663798  2183724.186203339
S142  396351.1879663798  2183726.323403339
S142  396296.5158663798  2183740.867803339
S142  396296.1507663798  2183768.418303339
S142 396295.27666637977  2183834.394203339
S142 396295.15766637976 2183843.3723033387
S142  396314.8323663798  2183844.066203339
S143  396686.0430400567 2183726.1675663646
S143 396536.06539807504 2183728.4552370715
S143  396520.2906217708 2183773.3245206093
S143 396535.32340455346 2183797.9897092544
S143  396685.5910509391 2183803.0943905097
S143  396686.0430400567 2183726.1675663646
S144  396667.7514648725  2183939.110107168
S144 396665.95218033635  2183875.684636606
S144 396533.91102054145  2183868.174648083
S144 396532.72725861194  2183871.994779379
S144 396531.84942885896 2183939.9876559316
S144  396666.8557728768  2183940.192361409
S144  396667.7514648725  2183939.110107168
S145 394486.66746086517  2183715.715050995
S145   394578.195796747 2183680.2029607557
S145   394588.074922289 2183615.0388292796
S145   394586.151120932  2183613.796521538
S145  394572.2949203468  2183598.841704547
S145  394553.1471220329  2183598.082415875
S145  394527.3484995241  2183604.842642827
S145  394501.3418883656 2183572.8871096233
S145  394506.1511209345  2183548.606106695
S145 394521.15112093446 2183520.2589227105
S145  394516.1491291115 2183466.5358004435
S145  394501.3418883656  2183443.606106693
S145  394496.1511209323 2183438.7965215365
S145  394477.4736105591 2183409.8732016156
S145  394451.3418883658 2183388.6061066953
S145 394418.75780040154 2183380.8448414598
S145 394411.15112093266 2183373.7965215365
S145   394398.019111411  2183359.624139895
S145    394342.55648817 2183382.4049207554
S145  394328.8894920754 2183347.3085029824
S145  394315.9565961535  2183328.513319976
S145 394317.31521744106 2183294.2396291527
S145  394288.7465046486 2183293.1068229056
S145  394261.9493145594 2183294.1688287635
S145  394256.1511209354  2183288.796521537
S145  394251.3418883643  2183263.606106691
S145 394224.65422732895 2183246.3722133334
S145  394226.9380188084  2183188.753809231
S145 394220.85021927196  2183136.198843413
S145  394221.7466085898  2183113.583431719
S145   393496.926133121  2182906.691842144
S145 392746.97741472477 2182882.7480740454
S145  392755.9699053915  2182893.978421639
S145 392766.32160539005 2182902.2670216383
S145 392770.96990538924  2182928.978421639
S145  392790.8562053909 2182953.8429216384
S145  392795.9699053891 2182988.9784216387
S145  392802.7517053909 2183000.5152216377
S145 392828.37280539016  2183011.311121639
S145   392838.746505391  2183051.201321638
S145   392843.746505391  2183051.201321638
S145   392843.746505391  2183056.201321638
S145  392836.7207053899 2183073.2985216393
S145  392842.5734053909  2183102.916421639
S145  392830.8340053908 2183118.2887216387
S145  392826.6590053913  2183139.055321639
S145 392846.65900539124 2183163.2887216387
S145 392850.83400539076  2183184.113921639
S145 392853.74650539097   2183191.20132164
S145  392890.8942053895 2183226.8922216403
S145 392875.82340539136 2183300.4725216385
S145  392876.8077053911  2183348.701321638
S145  392876.0935053904  2183383.701321638
S145  392878.8861053913 2183520.5433216384
S145 392856.19650539063 2183548.6512216395
S145  392851.2965053891 2183643.7513216385
S145  392846.1965053907  2183653.651221639
S145 392838.65430538997   2183738.46322164
S145 392795.53000539256 2183743.7330216384
S145   392761.391805391  2183779.264021638
S145 392757.79730972723  2183860.029453211
S145 394486.66746086517  2183715.715050995
S146 394588.69466487784  2183610.950927266
S146  394464.2111774826 2183227.1549629397
S146 394355.03948123276  2183151.630336701
S146  394221.7466085898  2183113.583431719
S146 394220.85021927196  2183136.198843413
S146  394226.9380188084  2183188.753809231
S146 394224.65422732895 2183246.3722133334
S146  394251.3418883643  2183263.606106691
S146  394256.1511209354  2183288.796521537
S146  394261.9493145594 2183294.1688287635
S146  394288.7465046486 2183293.1068229056
S146 394317.31521744106 2183294.2396291527
S146  394315.9565961535  2183328.513319976
S146  394328.8894920754 2183347.3085029824
S146    394342.55648817 2183382.4049207554
S146   394398.019111411  2183359.624139895
S146 394411.15112093266 2183373.7965215365
S146 394418.75780040154 2183380.8448414598
S146  394451.3418883658 2183388.6061066953
S146  394477.4736105591 2183409.8732016156
S146  394496.1511209323 2183438.7965215365
S146  394501.3418883656  2183443.606106693
S146  394516.1491291115 2183466.5358004435
S146 394521.15112093446 2183520.2589227105
S146  394506.1511209345  2183548.606106695
S146  394501.3418883656 2183572.8871096233
S146  394527.3484995241  2183604.842642827
S146  394553.1471220329  2183598.082415875
S146  394572.2949203468  2183598.841704547
S146   394586.151120932  2183613.796521538
S146   394588.074922289 2183615.0388292796
S146 394588.69466487784  2183610.950927266
S147  394900.9201177826 2183997.5524725243
S147 394844.69501778256  2183938.355572524
S147  394766.3881177826 2183937.1173725245
S147 394732.64111778256  2183941.827872524
S147  394731.7737177826  2183941.783972524
S147  394659.3627177826  2183962.395772524
S147  394656.3417177826 2183968.7964725243
S147 394640.47681778256 2183989.4849725245
S147  394615.8464177826 2184001.1097725243
S147  394616.5056177826  2184017.738172524
S147  394636.3417177826  2184043.606072524
S147  394641.3805177826 2184075.2363725244
S147  394649.6438177826 2184084.7638725243
S147  394726.3780177826 2184096.0387725243
S147  394759.4763177826  2184099.207172524
S147  394776.5377177826 2184199.2667725245
S147  394878.7272177826 2184230.7766725244
S147  394894.6786177826 2184117.8526725243
S147  394894.9730177826 2184112.1776725245
S147  394900.9201177826 2183997.5524725243
S148 395151.31411495776  2184240.458967236
S148  395205.7949149577 2184057.3979672357
S148  395132.8159149577  2184102.642867236
S148 395111.05411495775  2184116.134567236
S148  395039.5610149577 2184116.7022672356
S148  395043.3441149577  2184160.673067236
S148 395044.32521495776 2184165.7740672356
S148 395058.35561495775 2184238.7181672356
S148 395060.38511495775  2184251.754167236
S148 395082.41461495776 2184255.2378672357
S148 395151.09201495774  2184241.205167236
S148 395151.31411495776  2184240.458967236
S149  395026.7242709564  2184000.657317435
S149 394900.92017095647 2183997.5525174346
S149  394894.9730709564  2184112.177617435
S149 394898.15997095645  2184112.482717435
S149 395039.49477095646  2184115.932517435
S149 395039.56107095646 2184116.7022174345
S149  395111.0541709564 2184116.1345174345
S149 395132.81587095646 2184102.6429174347
S149 395175.07677095645  2184005.764817435
S149 395158.40477095643  2184003.907117435
S149  395026.7242709564  2184000.657317435
S150  395105.7532569388 2184472.8005448133
S150  395183.7437739249  2184423.716628507
S150  395151.0919966456 2184241.2051352714
S150 395082.41464619373  2184255.237884465
S150  395067.8969108217 2184302.2225886798
S150  395066.8722999993  2184331.792899998
S150 395063.30049999646 2184424.6511000013
S150 395064.99015850044  2184472.852172366
S150  395105.7532569388 2184472.8005448133
S151 395291.81211116596   2184271.02494041
S151   395349.822411166 2184001.8867404102
S151   395298.711311166 2183980.8868404105
S151 395236.71281116595   2184012.63264041
S151 395175.07681116596 2184005.7648404106
S151 395132.81591116596 2184102.6429404104
S151 395205.79491116595 2184057.3979404103
S151   395151.314111166 2184240.4589404105
S151 395291.81211116596   2184271.02494041
S152 395260.35755500733  2184416.957611081
S152  395291.8120700684 2184271.0249191215
S152   395151.314076631  2184240.458924788
S152  395151.0919966456 2184241.2051352714
S152  395183.7437739249  2184423.716628507
S152 395260.35755500733  2184416.957611081
S153  395491.0624692017  2184188.077455012
S153   395496.856967272   2184161.53657802
S153  395391.0001695593 2184009.5068516773
S153  395349.8224492488  2184001.886743589
S153  395291.8120700684 2184271.0249191215
S153  395399.5233000004  2184294.458000002
S153  395428.1624000034 2184176.6843000012
S153 395428.21350000054  2184176.474199999
S153 395471.95030000067  2184181.963200001
S153  395491.0624692017  2184188.077455012
S154  395464.6492402348  2184309.059505978
S154  395399.5233000004  2184294.458000002
S154  395291.8120700684 2184271.0249191215
S154 395260.35755500733  2184416.957611081
S154 395429.11076117744  2184471.838471393
S154  395464.6492402348  2184309.059505978
S155 394894.05126017844 2184255.7779700733
S155 394951.82266017847  2184234.586470073
S155 395060.38516017847  2184251.754170073
S155 395058.35556017846 2184238.7181700733
S155  395044.3252601785 2184165.7740700734
S155 395043.34406017844  2184160.673070073
S155 395039.56106017844 2184116.7022700734
S155 395039.49476017844 2184115.9324700735
S155  394898.1599601784 2184112.4826700734
S155 394894.97306017845  2184112.177670073
S155 394894.67866017844  2184117.852670073
S155  394878.7271601785  2184230.776670073
S155 394894.05126017844 2184255.7779700733
S156  395060.3851527025  2184251.754224519
S156  394951.8226527025 2184234.5865245187
S156  394894.0513527025  2184255.778024519
S156  394898.3625527025 2184481.2691245186
S156  395015.1548527025  2184472.915324519
S156  395064.9901527025 2184472.8521245187
S156  395063.3004527025  2184424.651124519
S156 395066.87225270254 2184331.7929245187
S156  395067.8969527025  2184302.222624519
S156  395082.4146527025  2184255.237924519
S156  395060.3851527025  2184251.754224519
S157 395469.51102802035 2184561.3761409144
S157  395231.8507217077  2184736.613103091
S157  395213.1866586144 2184790.5182074616
S157  395182.2554630874 2184915.7608305947
S157  395347.8218595744 2184970.6838428616
S157  395404.6085999999 2184738.1969000003
S157  395428.5670999985 2184657.1100000003
S157  395446.8260999997 2184601.4885000037
S157 395459.78749999905  2184579.080500004
S157 395469.51102802035 2184561.3761409144
S158  396074.3345876349  2184800.864027646
S158  395484.7557012159 2184550.1356007433
S158 395469.51102802035 2184561.3761409144
S158 395459.78749999905  2184579.080500004
S158  395446.8260999997 2184601.4885000037
S158  395428.5670999985 2184657.1100000003
S158  395404.6085999999 2184738.1969000003
S158  395347.8218595744 2184970.6838428616
S158  395612.4487020104  2185058.467980353
S158  396074.3345876349  2184800.864027646
S159 394439.62621120777  2184860.648356246
S159  394472.2354112078  2184825.454256246
S159 394486.34191120777 2184818.7965562455
S159  394496.1511112078  2184813.606156246
S159 394525.90931120777  2184804.184756246
S159  394571.1511112078  2184763.606156246
S159 394603.59931120777  2184750.970656246
S159 394635.21921120776  2184721.673056246
S159  394625.3098112078 2184717.8033562456
S159  394220.3658112078  2184819.552956246
S159  394265.5997112078  2184845.983056246
S159  394269.3556112078 2184843.8874562457
S159 394291.43251120776  2184848.515156246
S159  394331.0605112078 2184883.8874562457
S159  394361.8588112078 2184888.5804562457
S159  394360.8114112078 2184901.6149562458
S159  394359.5706112078  2184917.057556246
S159  394381.6599112078 2184934.3567562457
S159  394411.7786112078 2184931.3948562457
S159  394413.7465112078 2184931.2013562457
S159  394420.9152112078 2184924.5588562456
S159  394421.5437112078 2184908.7013562457
S159  394420.9528112078 2184893.7898562457
S159 394426.34191120777 2184888.7965562455
S159 394439.62621120777  2184860.648356246
S160 395091.73008158087 2185106.0779191353
S160 395157.84511092823 2184925.7643447844
S160  394635.2191977339  2184721.673043547
S160 394603.59928099235   2184750.97060767
S160  394571.1511209321 2184763.6061066925
S160 394525.90929503064 2184804.1847133343
S160  394496.1511209323 2184813.6061066925
S160  394486.3418883657  2184818.796521536
S160 394472.23541570926 2184825.4542289576
S160 394439.62618924485 2184860.6483248565
S160 394426.34188836586 2184888.7965215356
S160 394420.95278880536 2184893.7898146026
S160 394421.54372525495 2184908.7013141126
S160   394420.915220494   2184924.55883609
S160  394413.7465046504  2184931.201314116
S160   394414.268355735 2184932.8496152745
S160  394664.8393175224  2185079.257370245
S160 394979.51216707914 2185126.7037357017
S160 395091.73008158087 2185106.0779191353
S161  395066.1999316458  2184507.362635124
S161 395064.99013164587  2184472.852135124
S161 395015.15483164584  2184472.915335124
S161 394898.36253164586  2184481.269135124
S161  394884.7367316458  2184494.688135124
S161 394701.99053164583  2184651.855535124
S161 394675.68313164584 2184684.1810351238
S161 394635.21923164587  2184721.673035124
S161 395157.84513164585  2184925.764335124
S161  395170.1299316459  2184920.729935124
S161 395182.25543164584  2184915.760835124
S161 395213.18663164583  2184790.518235124
S161  395073.5515316459  2184664.750835124
S161 395072.12493164587  2184649.755435124
S161  395066.1999316458  2184507.362635124
S162  395231.8507217077  2184736.613103091
S162  395105.7532569388 2184472.8005448133
S162 395064.99015850044  2184472.852172366
S162 395066.19990000076 2184507.3626000057
S162  395072.1249000019  2184649.755400001
S162  395073.5514938264 2184664.7508252454
S162  395213.1866586144 2184790.5182074616
S162  395231.8507217077  2184736.613103091
S163 394979.51216707914 2185126.7037357017
S163  394664.8393175224  2185079.257370245
S163  394866.2439594355  2185294.427812836
S163 394979.51216707914 2185126.7037357017
S164 394162.87454501924 2184861.4099730807
S164  394184.5995450192 2184846.0059730806
S164  394218.6633450192  2184858.515073081
S164 394251.43254501926  2184853.887373081
S164  394265.5996450192  2184845.982973081
S164  394220.3657450192  2184819.552973081
S164 394625.30984501925  2184717.803273081
S164 394635.21924501925  2184721.673073081
S164  394675.6831450192 2184684.1810730807
S164  394701.9905450192  2184651.855573081
S164  394716.1217450192 2184634.4916730807
S164  394721.1513450192  2184618.606073081
S164  394745.9401450192 2184582.5818730807
S164  394751.1513450192  2184468.606073081
S164 394757.81234501925  2184449.600973081
S164  394737.8273450192 2184431.0840730807
S164 394736.10764501925  2184387.699673081
S164  394741.1513450192  2184303.606073081
S164  394751.1513450192  2184255.809473081
S164 394746.24834501924  2184212.784573081
S164 394731.96674501925 2184199.5519730807
S164  394167.7795450192  2184203.162373081
S164 393425.60174501926 2184457.9837730806
S164 393428.84644501924  2184461.101173081
S164  393438.0039450192  2184470.632373081
S164  393459.0678450192  2184478.651173081
S164  393491.3567450192  2184456.763973081
S164  393511.5886450192 2184443.7512730807
S164  393521.1964450192 2184453.7512730807
S164 393531.29654501926  2184458.651173081
S164  393551.1964450192 2184473.7512730807
S164 393561.29654501926  2184478.651173081
S164  393586.1964450192 2184498.7512730807
S164 393596.29654501926  2184503.651173081
S164  393694.5419450192  2184595.600673081
S164  393731.1964450192 2184633.7512730807
S164 393741.49084501923  2184638.745173081
S164  393751.1964450192 2184658.7512730807
S164 393757.46404501924  2184670.917473081
S164 393781.29654501926  2184678.651173081
S164  393786.1964450192 2184703.7512730807
S164 393791.29654501926  2184713.651173081
S164  393796.1964450192 2184723.7512730807
S164 393801.57474501926  2184728.918573081
S164  393816.8739450192 2184760.4535730807
S164  393816.1903450192  2184793.951473081
S164  393796.1964450192  2184803.651173081
S164  393793.7465450192  2184806.201273081
S164  393815.5238450192 2184810.7575730807
S164  393960.9293450192  2184802.796673081
S164  393989.1278450192  2184803.914273081
S164  393996.1511450192 2184818.7964730808
S164 394001.63544501923  2184825.535373081
S164 394019.88724501926 2184847.9620730807
S164  394026.1511450192 2184893.7964730808
S164 394035.37604501925  2184911.229973081
S164  394066.3419450192  2184918.606073081
S164  394073.7465450192  2184931.201273081
S164 394084.54884501925  2184921.894573081
S164  394096.0605450192  2184903.515073081
S164 394112.36714501923  2184898.606073081
S164 394127.43994501926 2184881.1109730806
S164 394152.36714501923  2184873.606073081
S164 394162.87454501924 2184861.4099730807
S166  394884.7367594986  2184494.688112918
S166 394898.36253809184 2184481.2691391795
S166 394894.05130665627 2184255.7780192904
S166  394878.7271782207 2184230.7766829384
S166  394776.5377145921  2184199.266751062
S166 394731.96672130254  2184199.551977495
S166  394746.2483201751 2184212.7845400935
S166  394751.1512972275 2184255.8094412624
S166  394741.1512972275  2184303.606106692
S166  394736.1076271572 2184387.6997206565
S166 394737.82730992197 2184431.0841203667
S166 394757.81238311675  2184449.600943217
S166  394751.1512972275  2184468.606106694
S166  394745.9401064064  2184582.581921733
S166  394721.1512972253  2184618.606106693
S166 394716.12169620383 2184634.4917167528
S166 394701.99052997376 2184651.8555370495
S166  394884.7367594986  2184494.688112918
S167 395255.59748732304 2185196.5770041905
S167   395099.117987323  2185146.932104191
S167   395100.003887323 2185242.3458041907
S167   395112.952387323 2185278.1517041908
S167 395169.61358732305 2185296.2631041906
S167 395244.73248732305 2185341.5081041907
S167   395254.701187323 2185247.0240041907
S167   395284.135887323  2185229.990504191
S167 395288.09718732303 2185212.4133041906
S167 395289.20258732303 2185207.2385041905
S167 395255.59748732304 2185196.5770041905
S168 395275.60171061085 2186224.8572545405
S168 395122.52981061087 2186213.2525545405
S168 395114.20501061087 2186213.4607545407
S168  395101.2163106109 2186377.4289545408
S168  395237.3620106109 2186425.7022545408
S168 395290.37841061084 2186414.7584545407
S168  395297.6255106109 2186342.6563545405
S168 395309.20961061085 2186227.4052545405
S168 395275.60171061085 2186224.8572545405
S169  394839.7187736933  2185481.720508026
S169  394851.2343262416  2185418.868519257
S169 394781.76770895405  2185378.508467688
S169 394780.52018554613 2185379.1511356914
S169  394766.6951123045 2185393.5401737774
S169  394757.0335522482 2185398.6512577627
S169  394721.2965527346  2185368.651257763
S169 394693.15659912064  2185361.791516555
S169 394686.29655273474  2185333.651257761
S169 394666.19645508064 2185318.7513554217
S169 394637.60648093687 2185294.7509043547
S169   394635.497700979 2185293.5257048113
S169 394605.12010009895 2185288.7513554217
S169 394568.74650390807 2185296.2013065903
S169  394537.5929394528  2185333.710461867
S169 394551.43250854494 2185358.5151493675
S169 394556.06049926684 2185368.8874638146
S169  394567.9026928733 2185385.5891239713
S169  394566.7331916351 2185400.1441863435
S169  394772.6612492455 2185516.7859419356
S169  394839.7187736933  2185481.720508026
S170 395100.00391003647  2185242.345764723
S170  395099.1179683212 2185146.9321259316
S170 395091.73008158087 2185106.0779191353
S170 394979.51216707914 2185126.7037357017
S170  394866.2439594355  2185294.427812836
S170  394867.0590299768  2185296.139196736
S170 395100.00391003647  2185242.345764723
S171  394865.7124354743 2185391.0486048763
S171  394866.3025354743 2185349.4578048764
S171  394867.0590354743 2185296.1392048765
S171  394866.2439354743  2185294.427804876
S171  394664.8393354743 2185079.2574048764
S171  394414.2683354743 2184932.8496048762
S171  394416.1511354743  2184938.796504876
S171  394431.1383354743  2184975.283304876
S171 394412.13213547436 2185011.2013048762
S171 394422.71513547434 2185031.2013048762
S171  394416.1511354743 2185043.6061048764
S171  394411.3418354743 2185055.2583048763
S171 394427.78003547434 2185086.3240048764
S171  394451.3418354743 2185103.6061048764
S171  394456.1511354743  2185138.796504876
S171 394482.62683547434 2185173.3223048765
S171  394511.3418354743 2185208.6061048764
S171  394514.8763354743  2185223.444804876
S171  394516.1511354743  2185228.796504876
S171  394531.3418354743 2185248.6061048764
S171  394536.1511354743  2185258.796504876
S171  394558.7723354743  2185286.592504876
S171  394566.3418354743 2185293.6061048764
S171  394568.7465354743 2185296.2013048762
S171  394605.1201354743 2185288.7514048764
S171  394635.4977354743 2185293.5257048765
S171  394637.6064354743 2185294.7509048763
S171  394666.1964354743 2185318.7514048764
S171  394686.2965354743 2185333.6513048764
S171 394693.15663547436  2185361.791504876
S171  394721.2965354743 2185368.6513048764
S171 394757.03353547433 2185398.6513048764
S171  394766.6951354743  2185393.540204876
S171 394780.52023547434 2185379.1511048763
S171 394781.76773547434 2185378.5085048764
S171  394851.2343354743 2185418.8685048763
S171  394865.7124354743 2185391.0486048763
S172 395112.95245741046 2185278.151758787
S172 395100.00395741046 2185242.345758787
S172 394867.05905741046 2185296.139158787
S172  394866.3025574105 2185349.457758787
S172 394865.71245741047 2185391.048658787
S172  395031.5042574105 2185374.267558787
S172 395079.48185741046 2185369.411358787
S172 395112.95245741046 2185278.151758787
S173 395169.61360057653 2185296.2630079277
S173  395112.9525005765 2185278.1517079277
S173  395079.4819005765 2185369.4113079277
S173  395080.3006005765  2185373.955107928
S173  395085.6908005765 2185403.8680079277
S173 395141.00630057656 2185452.0470079277
S173  395147.2002005765 2185455.4130079276
S173  395160.0264005765 2185470.5851079277
S173 395186.26470057655  2185440.882707928
S173  395216.6894005765  2185422.925507928
S173 395218.84070057655 2185421.1824079277
S173 395226.25620057655  2185415.174107928
S173 395226.78300057654 2185414.5980079276
S173  395225.6930005765  2185409.516207928
S173  395227.2224005765 2185398.6679079277
S173 395232.37510057655  2185389.005007928
S173 395240.55020057654 2185381.6717079277
S173  395241.9257005765  2185368.358007928
S173 395242.13610057655  2185366.321307928
S173 395243.14830057655  2185356.523307928
S173 395244.73250057653 2185341.5081079276
S173 395169.61360057653 2185296.2630079277
S174 395281.93581619323 2185540.1529120165
S174 395257.57871619327 2185538.7829120164
S174 395226.20481619326 2185548.8676120164
S174 395135.64781619323 2185666.6759120165
S174 395174.30751619325 2185876.4390120166
S174  395202.3901161933 2185871.0728120166
S174  395233.8583161933 2185859.9342120164
S174  395340.7773161933 2185836.2999120164
S174 395304.06891619327 2185651.5482120165
S174 395281.93581619323 2185540.1529120165
S175  395112.4662452476 2185909.6789417793
S175 394926.26634524757 2185898.8524417793
S175 394918.95494524756  2185994.425741779
S175 394909.08084524755 2186123.5204417794
S175 394945.45724524755 2186125.0487417793
S175 395102.63344524754 2186081.5572417793
S175 395126.31624524755  2186016.905441779
S175  395134.0070452476  2185995.910141779
S175  395135.6808452476  2185915.255341779
S175  395112.4662452476 2185909.6789417793
S176 394918.95489999844  2185994.425700004
S176 394926.26635298773 2185898.8524847655
S176  394608.4177000831 2185880.3713475727
S176 394603.79785572767 2185881.0376376347
S176 394497.73968647805 2185937.5256948792
S176 394514.03077514697 2185956.5498173363
S176  394510.2421704097  2186003.701306593
S176 394514.93302734464   2186062.08082319
S176   394531.432508545 2186088.5151493605
S176 394534.36774584604  2186107.778185808
S176  394909.0808602613 2186123.5204835255
S176 394918.95489999844  2185994.425700004
S177  394608.4177000831 2185880.3713475727
S177  394917.2631244541 2185670.2363267587
S177  394958.9798109282 2185565.7192802564
S177  394839.7187736933  2185481.720508026
S177  394772.6612492455 2185516.7859419356
S177 394603.79785572767 2185881.0376376347
S177  394608.4177000831 2185880.3713475727
S178  395080.3006493397 2185373.9550778493
S178  395079.4818493397 2185369.4113778495
S178  395031.5042493397 2185374.2675778493
S178  394865.7124493397 2185391.0485778493
S178  394851.2343493397 2185418.8684778493
S178  394839.7187493397 2185481.7204778492
S178  394958.9798493397 2185565.7192778494
S178 394982.24964933965 2185565.2066778494
S178 395085.69084933965  2185403.867977849
S178  395080.3006493397 2185373.9550778493
S179  394957.8548441461 2185720.0274773743
S179  394917.2631244541 2185670.2363267587
S179  394608.4177000831 2185880.3713475727
S179 394926.26635298773 2185898.8524847655
S179  394938.0643999982 2185744.6318000043
S179  394957.8548441461 2185720.0274773743
S180   395141.006273683 2185452.0468845014
S180 395085.69077368296  2185403.867984501
S180 394982.24967368296 2185565.2066845014
S180 395051.11107368296  2185604.087384501
S180   395063.701373683 2185611.1962845013
S180 395091.05617368297 2185554.8802845012
S180 395158.07687368296  2185472.791884501
S180   395160.026373683  2185470.585084501
S180   395147.200173683  2185455.412984501
S180   395141.006273683 2185452.0468845014
S181 395261.91510444414   2185328.58908369
S181 395284.13590444415 2185229.9905836903
S181 395254.70120444417 2185247.0239836904
S181 395244.73250444414 2185341.5081836903
S181 395243.14830444416   2185356.52328369
S181 395242.13610444416 2185366.3211836903
S181  395241.9256044442   2185368.35798369
S181  395257.6475044442   2185368.67898369
S181 395259.86770444416 2185347.8229836905
S181 395261.91510444414   2185328.58908369
S182 395540.15106170066 2185228.7746311603
S182  395549.1552617007 2185195.4668311602
S182  395311.3243617007   2185214.25693116
S182 395289.20256170066   2185207.23853116
S182 395288.09716170066 2185212.4133311603
S182 395284.13586170063   2185229.99053116
S182  395261.9150617007   2185328.58913116
S182 395259.86766170064   2185347.82293116
S182 395257.64756170067   2185368.67903116
S182 395268.21366170066   2185368.89483116
S182 395272.03236170067   2185368.58343116
S182 395266.60106170067   2185349.09363116
S182 395336.66956170066   2185319.40193116
S182 395412.94906170067 2185287.0783311604
S182 395507.95826170064   2185246.81783116
S182  395538.8072617007 2185233.7455311604
S182 395540.15106170066 2185228.7746311603
S183  395419.8768552558  2187508.099488092
S183 395419.03803744056  2187503.350642132
S183   395341.241248053 2187292.7063047253
S183 395186.28430144314   2187419.16236217
S183 395218.37420642877  2187543.540557119
S183 395220.91290735325   2187542.96411085
S183  395419.8768552558  2187508.099488092
S184 395473.83103399404 2187813.5532833436
S184  395419.8768552558  2187508.099488092
S184 395220.91290735325   2187542.96411085
S184 395218.37420642877  2187543.540557119
S184 395321.29608016677 2187942.4584350595
S184 395473.83103399404 2187813.5532833436
S185   394167.779584672  2184203.162413604
S185   394565.798012844 2183989.0289467936
S185 394596.53404931223 2183814.0934840287
S185 394530.65893104696  2183740.143076797
S185 394486.66746086517  2183715.715050995
S185 392757.79730972723  2183860.029453211
S185 392756.29650539166   2183893.75132164
S185 392746.19650539104  2183908.651221638
S185  392740.7843053905  2183958.465721638
S185  392708.7465053893  2183996.201321639
S185  392713.7465053915 2183996.2013216373
S185  392713.7465053915  2184006.201321639
S185 392722.06680539175  2184007.881021639
S185 392728.74650539143  2184011.201321639
S185   392740.190405391  2183998.850221638
S185 392760.07010538975  2183993.796521639
S185 392786.15120539075 2184013.7965216385
S185 392822.39640539105 2184025.2723216396
S185  392856.1512053905 2184053.7965216385
S185  392924.6235053909  2184109.389221639
S185  392958.7465053906 2184156.2013216387
S185  393071.1965053899  2184263.751321639
S185  393086.2965053905  2184268.651221639
S185 393106.19650538976 2184283.7513216385
S185 393118.74650539004  2184286.201321638
S185  393133.7465053922  2184296.201321638
S185  393136.2965053903 2184293.7513216385
S185   393143.471505392 2184293.6048216387
S185 393197.73660539096 2184273.0684216395
S185 393231.24650539074 2184273.7526216386
S185  393236.2927053912  2184273.649421639
S185  393246.1965053893 2184278.7513216385
S185  393261.2965053899  2184283.651221639
S185 393276.25660538924 2184288.7721216376
S185 393286.19650539133  2184283.651221639
S185 393322.37300539046 2184278.7513216385
S185  393361.6860053895 2184319.6687216377
S185  393360.6744053911 2184369.2298216377
S185 393391.29650539166 2184398.6512216385
S185  393396.1964053899  2184423.751321638
S185 393407.82110539044   2184440.90042164
S185  393425.6017303008 2184457.9837853815
S185   394167.779584672  2184203.162413604
S186 395114.13085992535 2186212.6157900547
S186 395102.63345992536 2186081.5571900546
S186  394945.4572599253 2186125.0486900546
S186  394927.6985599253 2186198.4819900542
S186 394921.88905992534 2186198.0415900545
S186 394903.32935992535 2186198.7159900544
S186  394891.6604599253 2186347.5009900546
S186 394886.48575992533 2186368.8985900544
S186  394889.9142599253 2186369.7658900544
S186  395040.9403599253 2186407.9703900544
S186 395101.21625992534 2186377.4289900544
S186  395114.2050599253 2186213.4607900544
S186 395114.13085992535 2186212.6157900547
S187 395226.20477932016  2185548.867643786
S187  395160.0263477915 2185470.5850828853
S187 395158.07689999836 2185472.7918999996
S187 395091.05620312766 2185554.8802675563
S187   395063.701400317 2185611.1962387604
S187    395135.64778475 2185666.6758792223
S187 395226.20477932016  2185548.867643786
S188   394903.329373653  2186198.716028405
S188 394921.88907365303  2186198.041528405
S188   394927.698473653  2186198.481928405
S188   394945.457273653  2186125.048728405
S188   394909.080873653  2186123.520528405
S188   394534.367773653  2186107.778228405
S188   394536.807273653  2186123.787928405
S188   394551.432473653 2186158.5151284053
S188   394556.784673653  2186187.856628405
S188 394579.46137365303  2186219.839028405
S188   394586.060473653  2186248.887428405
S188   394591.432473653 2186268.5151284053
S188   394597.975373653  2186311.452728405
S188   394621.432373653 2186318.5151284053
S188   394654.392873653  2186346.740828405
S188   394654.553573653  2186347.274528405
S188   394886.485773653  2186368.898528405
S188   394891.660473653  2186347.501028405
S188   394903.329373653  2186198.716028405
S189 394603.79785572767 2185881.0376376347
S189  394772.6612492455 2185516.7859419356
S189  394566.7331916351 2185400.1441863435
S189  394563.8408032243 2185436.1414921368
S189 394531.06049926695 2185473.5151493675
S189   394526.432508545 2185498.8874638164
S189  394502.1965161141 2185529.8335087365
S189  394496.4325085451 2185573.8874638183
S189 394481.06049926934  2185593.515149367
S189  394475.1875439459  2185613.021985305
S189  394476.8106213368  2185633.222180618
S189  394463.7465039062  2185656.201306589
S189  394466.0604992672   2185668.88746382
S189 394476.43250854744 2185683.5151493642
S189 394481.14610107307 2185918.1483280743
S189 394497.73968647805 2185937.5256948792
S189 394603.79785572767 2185881.0376376347
S190  395358.6686208576  2186675.959649822
S190  395348.0242208576  2186612.224649822
S190  395322.3017208576  2186612.963949822
S190  395274.3708208576 2186614.3417498223
S190  395217.5082208576  2186601.809549822
S190 395200.17452085763  2186703.143949822
S190  395352.1812208576  2186841.132249822
S190  395370.4316208576  2186854.754949822
S190  395386.8157208576  2186844.493549822
S190  395393.8294208576  2186840.100849822
S190  395374.5413208576  2186703.454649822
S190  395358.6686208576  2186675.959649822
S191 394874.2362488078 2186632.7725528516
S191 394826.4186488078 2186629.0577528514
S191 394825.7756488078 2186637.0600528517
S191 394813.8292488078 2186669.5911528515
S191 394803.3744488078 2186688.3295528516
S191 394793.8575488078 2186730.2210528515
S191 394788.0043488078 2186737.0527528515
S191 394870.9982488078 2186743.2422528514
S191 394992.1871488078 2186752.2802528515
S191 395010.5630488078 2186682.6821528515
S191 394992.7641488078 2186641.9806528515
S191 394874.2362488078 2186632.7725528516
S192  395040.9403325442  2186407.970452543
S192 394889.91433254426 2186369.7658525426
S192 394877.18973254424  2186532.011352543
S192 394874.23623254424  2186632.772552543
S192  394992.7641325442  2186641.980652543
S192 395010.13313254423  2186557.612652543
S192  395040.9403325442  2186407.970452543
S193  394877.1897100003 2186532.0113033373
S193 394889.91429372784  2186369.765854038
S193 394886.48580104334 2186368.8985598423
S193 394654.55355070136  2186347.274567029
S193   394665.219587404   2186382.70155073
S193 394676.82023437525 2186399.0620243675
S193  394675.7020703121  2186412.978039992
S193 394645.92057617445  2186438.635998972
S193 394656.18760498264 2186457.0380985807
S193  394686.4323559589  2186468.515149364
S193  394711.1528149436   2186488.96375776
S193  394716.0606518563  2186568.887463815
S193  394737.4040356463  2186582.255383736
S193 394751.43235595647  2186588.515149368
S193   394772.956098632   2186605.37183882
S193 394811.08476074116  2186602.307873973
S193  394827.0765820315 2186620.8698856886
S193  394826.4186468062   2186629.05772982
S193  394874.2362639098 2186632.7725530392
S193  394877.1897100003 2186532.0113033373
S194  395326.8951224702 2187158.59429336
S194 395106.85152247024 2187152.78099336
S194 395086.75342247024 2187337.23139336
S194  395077.9896224702 2187417.66119336
S194 395081.00352247024 2187418.04739336
S194 395106.96032247023 2187421.37309336
S194 395186.28432247025 2187419.16239336
S194 395341.24122247024 2187292.70629336
S194 395364.23552247026 2187249.28659336
S194  395326.8951224702 2187158.59429336
S195   394836.600655854  2187094.996826929
S195 394831.29656000104 2187078.6512403428
S195 394826.19646117423 2187068.7513391697
S195  394821.2965600011 2187018.6512403428
S195 394806.29656000115 2186996.5223372136
S195  394811.1964611743  2186973.651240341
S195  394820.2052557051 2186956.1640990316
S195  394786.7151927433  2186946.718188047
S195  393943.7464672674 2186922.9960039286
S195 393943.74646726967 2186926.2013229174
S195  393943.7464672674 2186931.2013229174
S195  393943.7464672674 2186936.2013229174
S195  393943.7464672674  2186941.201322919
S195  393943.7464672674  2186946.201322917
S195  393943.7464672674  2186951.201322917
S195  393943.7464672674  2186956.201322917
S195  393943.7464672674  2186961.201322917
S195  393943.7464672674  2186966.201322917
S195  393943.7464672674 2187034.8677355424
S195 394834.75923283526  2187119.285137612
S195   394836.600655854  2187094.996826929
S196 394974.49089128955 2186839.9631131995
S196 394864.37939128955 2186830.6007131995
S196 394849.80469128955 2186948.4936131993
S196 394844.38269128953  2186992.351413199
S196  394836.6006912895 2187094.9968131995
S196 394834.75919128954  2187119.285113199
S196 394834.79509128956 2187119.2885131994
S196  394956.3714912895 2187115.2883131993
S196 394987.64279128955  2186952.372513199
S196 394995.12549128954 2186938.9927131995
S196 394974.49089128955 2186839.9631131995
S197 394849.80470474286  2186948.493606206
S197  394786.7151927433  2186946.718188047
S197  394820.2052557051 2186956.1640990316
S197  394811.1964611743  2186973.651240341
S197 394806.29656000115 2186996.5223372136
S197  394821.2965600011 2187018.6512403428
S197 394826.19646117423 2187068.7513391697
S197 394831.29656000104 2187078.6512403428
S197   394836.600655854  2187094.996826929
S197  394844.3827150007 2186992.3514050017
S197 394849.80470474286  2186948.493606206
S198  394782.0350180036  2186823.599282781
S198 393963.74646726734 2186754.0232738946
S198 393963.74646726734  2186756.201322918
S198 393963.74646726734  2186761.201322918
S198  393958.7464672696  2186761.201322918
S198 393958.74646726734  2186766.201322918
S198  393953.7464672696  2186766.201322918
S198  393953.7464672696  2186771.201322918
S198  393953.7464672674  2186776.201322918
S198  393953.7464672696  2186781.201322918
S198  393953.7464672674  2186786.201322918
S198  393953.7464672674  2186791.201322918
S198  393953.7464672674  2186796.201322918
S198  393958.7464672696  2186796.201322918
S198 393958.74646726734 2186811.2013229174
S198  393953.7464672674 2186811.2013229174
S198  393953.7464672674 2186816.2013229174
S198  393953.7464672674 2186821.2013229174
S198  393953.7464672674 2186826.2013229174
S198  393953.7464672674 2186831.2013229174
S198  393953.7464672696 2186836.2013229174
S198  393953.7464672674 2186841.2013229174
S198  393953.7464672674 2186846.2013229174
S198  393953.7464672674 2186851.2013229174
S198  393953.7464672674 2186856.2013229174
S198  393953.7464672674 2186861.2013229174
S198  393948.7464672674 2186861.2013229174
S198  393948.7464672696 2186876.2013229174
S198  393943.7464672674 2186876.2013229174
S198  393943.7464672674 2186881.2013229174
S198  393943.7464672674 2186886.2013229174
S198  393943.7464672674 2186891.2013229174
S198  393943.7464672674 2186896.2013229174
S198  393943.7464672674 2186901.2013229174
S198  393943.7464672674 2186906.2013229174
S198  393943.7464672674 2186911.2013229174
S198  393943.7464672674 2186916.2013229174
S198  393943.7464672674  2186921.201322919
S198  393943.7464672674 2186922.9960039286
S198  394786.7151927433  2186946.718188047
S198 394766.34386112564 2186940.9724238357
S198  394766.0020626872 2186924.2195089934
S198 394771.29656000127  2186908.751339168
S198  394776.1964611722 2186888.6512403414
S198   394786.304174699  2186873.740346005
S198  394782.0350180036  2186823.599282781
S199  394864.3793693117  2186830.600715536
S199  394782.0350180036  2186823.599282781
S199   394786.304174699  2186873.740346005
S199  394776.1964611722 2186888.6512403414
S199 394771.29656000127  2186908.751339168
S199  394766.0020626872 2186924.2195089934
S199 394766.34386112564 2186940.9724238357
S199  394786.7151927433  2186946.718188047
S199 394849.80470474286  2186948.493606206
S199  394864.3793693117  2186830.600715536
S200 394756.15126847243  2186768.796526931
S200 394746.51226847246 2186758.3937269314
S200 394723.14716847247 2186759.3196269316
S200 394699.40166847245 2186753.0976269315
S200 394676.85486847244 2186728.7634269316
S200 394625.81066847243 2186673.6726269317
S200  394299.8727684725  2186668.796526931
S200 394278.74646847247 2186676.2013269314
S200  394271.5187684724 2186683.7239269316
S200  394231.1964684724 2186688.6512269313
S200 394221.29656847246 2186693.7513269316
S200  394216.9257684724 2186694.4628269314
S200  394191.1964684724 2186698.6512269313
S200 394161.29656847246 2186703.7513269316
S200 393971.37496847246 2186710.3938269312
S200 393968.74646847247 2186686.2013269314
S200 393963.74646847247 2186686.2013269314
S200 393963.74646847247 2186691.2013269314
S200 393963.74646847247 2186696.2013269314
S200 393963.74646847247 2186701.2013269314
S200 393963.74646847247 2186706.2013269314
S200 393963.74646847247 2186711.2013269314
S200 393963.74646847247 2186716.2013269314
S200 393963.74646847247 2186721.2013269314
S200 393963.74646847247 2186726.2013269314
S200 393963.74646847247 2186731.2013269314
S200 393963.74646847247 2186736.2013269314
S200 393963.74646847247 2186741.2013269314
S200 393963.74646847247 2186746.2013269314
S200 393963.74646847247 2186751.2013269314
S200 393963.74646847247 2186754.0232269317
S200 394782.03496847244 2186823.5993269314
S200 394780.43256847246 2186804.7786269314
S200  394793.5542684724 2186785.4206269314
S200  394765.9403684724 2186778.6891269316
S200 394758.74646847247 2186771.2013269314
S200 394756.15126847243  2186768.796526931
S201   394870.998298789 2186743.2422957662
S201   394788.004298789  2186737.052795766
S201   394758.746498789  2186771.201295766
S201   394765.940398789 2186778.6890957663
S201   394793.554298789  2186785.420595766
S201   394780.432598789  2186804.778595766
S201   394782.034998789  2186823.599295766
S201   394864.379398789  2186830.600695766
S201   394974.490898789  2186839.963095766
S201   394985.212398789 2186804.1975957663
S201 394992.18719878903  2186752.280295766
S201   394870.998298789 2186743.2422957662
S202 394834.75927071064 2187119.2851151926
S202  393943.7464707106 2187034.8677151925
S202  393943.7464707106 2187106.2013151925
S202  393943.7464707106 2187146.2013151925
S202  393948.7464707106 2187146.2013151925
S202  393948.7464707106 2187151.2013151925
S202  393948.7464707106 2187156.2013151925
S202 393952.06677071063 2187162.8810151923
S202  393953.7464707106 2187171.2013151925
S202  393955.0183707106 2187219.9293151926
S202  393962.4746707106 2187227.4733151924
S202  393963.7464707106 2187261.2013151925
S202  393963.7464707106 2187266.2013151925
S202  393968.7464707106 2187266.2013151925
S202  393968.7464707106 2187271.2013151925
S202  393968.7464707106 2187276.2013151925
S202  393968.7464707106 2187281.2013151925
S202  393968.7464707106 2187286.2013151925
S202  393973.7464707106 2187286.2013151925
S202  393973.7464707106 2187291.2013151925
S202  393973.7464707106 2187296.2013151925
S202  393978.7464707106 2187296.2013151925
S202  393978.7464707106 2187301.2013151925
S202 393998.49957071064  2187316.447915192
S202  394013.7464707106 2187336.2013151925
S202  394018.7464707106 2187336.2013151925
S202  394018.7464707106 2187338.4872151925
S202 394613.89277071063 2187389.5257151923
S202  394812.9766707106 2187406.5987151926
S202 394825.23607071064 2187244.8964151926
S202  394826.1360707106 2187233.0254151924
S202 394829.46637071064 2187189.0982151926
S202 394830.75697071064  2187172.075115192
S202  394832.7896707106 2187145.2643151926
S202 394834.75927071064 2187119.2851151926
S203    395142.40527417 2186696.9098439612
S203  395010.5630949621  2186682.682133004
S203  394992.1871535677 2186752.2802995066
S203 394985.21238217247 2186804.1975959446
S203  395130.2203816028 2186818.7923533875
S203    395142.40527417 2186696.9098439612
S204  394971.6488544679  2187136.588907465
S204  394956.3715544679 2187115.2883074647
S204 394834.79515446787  2187119.288507465
S204  394834.7592544679 2187119.2851074645
S204  394832.7896544679 2187145.2643074645
S204  394830.7569544679 2187172.0751074646
S204  394829.4663544679 2187189.0982074644
S204  394826.1360544679 2187233.0254074647
S204  394825.2360544679 2187244.8964074645
S204  394812.9766544679 2187406.5987074645
S204  394822.6903544679 2187407.4318074645
S204  394929.8646544679 2187426.6522074644
S204  394957.0554544679  2187409.241107465
S204  394971.6488544679  2187136.588907465
S205   395557.495266601 2186979.8252463527
S205   395489.745166601 2186816.3834463526
S205   395393.829366601 2186840.1008463525
S205   395386.815666601 2186844.4935463527
S205   395370.431566601  2186854.754946353
S205   395324.302966601  2186955.665646353
S205   395328.007866601 2187052.8255463527
S205   395420.580566601 2187046.6652463526
S205   395553.400366601 2187019.6098463526
S205   395563.859966601 2187016.5410463526
S205   395565.010066601 2187016.2035463527
S205 395560.22426660097  2186986.408746353
S205   395557.495266601 2186979.8252463527
S206  395569.8965553341 2187047.9221494934
S206  395563.8599449667  2187016.541017516
S206  395553.4003999988 2187019.6098000044
S206 395420.58060000074 2187046.6652000006
S206 395328.00790840853  2187052.825547953
S206 395329.76344125584 2187098.8637163546
S206  395569.8965553341 2187047.9221494934
S207 395309.20964309364  2186227.405194758
S207  395311.1061430936  2186208.535994758
S207  395362.2644430936  2186151.487394758
S207 395167.07644309365  2186018.449794758
S207  395134.0070430936  2185995.910094758
S207 395126.31624309364  2186016.905394758
S207  395102.6334430936 2186081.5571947577
S207  395114.1308430936  2186212.615794758
S207 395114.20504309365  2186213.460794758
S207 395122.52984309365  2186213.252594758
S207 395275.60174309363  2186224.857294758
S207 395309.20964309364  2186227.405194758
S208  394675.7536597961 2188272.3689225656
S208 394552.65543470014 2188216.6688936823
S208  394511.3871899404 2188253.8416874497
S208 394499.78944213915 2188258.5609257347
S208 394481.38718994043 2188248.5609257347
S208 394471.10581786965 2188243.8416874497
S208 394452.62360961956 2188233.7983524883
S208  394426.8570080584  2188228.841687448
S208  394396.3871899408 2188253.8416874497
S208   394377.813123779  2188262.367078078
S208 394326.06965454126 2188224.6888554203
S208 394246.33622558636 2188229.4410526836
S208   394234.638227541  2188199.011365184
S208  394221.3871899436 2188213.8416874497
S208  394201.4210644536  2188226.540051706
S208  394155.5664196775 2188233.5609257324
S208 394146.38718994166 2188213.5609257324
S208 394127.41166503757  2188189.074841746
S208  394093.7465039053  2188186.201306589
S208  394086.9586315916 2188218.6451542485
S208  394113.0378857413 2188250.6898319796
S208  394105.9605541976 2188284.5173466327
S208  394094.7742219396 2188294.8818839174
S208  394122.7225999991 2188297.1878000014
S208  394129.7667999991 2188297.3672000016
S208  394207.4112999992 2188304.8315000003
S208 394317.46634999965  2188304.142400005
S208 394451.26739999856  2188316.986399999
S208 394537.24089999887 2188327.4805999985
S208  394598.4124000024  2188339.008199999
S208 394651.17459999956       2188351.6821
S208 394696.04709999805  2188361.236500003
S208  394700.1532843001  2188361.952305132
S208  394675.7536597961 2188272.3689225656
S209 394552.65543470014 2188216.6688936823
S209  394205.0358926142 2188059.3764670943
S209 394178.99888176087 2188053.5054827263
S209  394171.1964550779  2188068.651257762
S209 394166.29655273433  2188078.751355419
S209 394160.72938354476 2188089.5582401836
S209  394065.7652416984 2188087.6197636197
S209  394066.3090649417   2188114.26405073
S209  394076.7892590331   2188134.60767866
S209  394076.0905590817  2188168.845349559
S209  394088.8464489739  2188181.101208935
S209  394093.7465039053  2188186.201306589
S209 394127.41166503757  2188189.074841746
S209 394146.38718994166 2188213.5609257324
S209  394155.5664196775 2188233.5609257324
S209  394201.4210644536  2188226.540051706
S209  394221.3871899436 2188213.8416874497
S209   394234.638227541  2188199.011365184
S209 394246.33622558636 2188229.4410526836
S209 394326.06965454126 2188224.6888554203
S209   394377.813123779  2188262.367078078
S209  394396.3871899408 2188253.8416874497
S209  394426.8570080584  2188228.841687448
S209 394452.62360961956 2188233.7983524883
S209 394471.10581786965 2188243.8416874497
S209 394481.38718994043 2188248.5609257347
S209 394499.78944213915 2188258.5609257347
S209  394511.3871899404 2188253.8416874497
S209 394552.65543470014 2188216.6688936823
S210  394750.1912977621 2188160.2242919593
S210   394711.105817871 2188163.5609257324
S210  394686.2632885737 2188182.8126347186
S210  394627.0066967767  2188188.988171828
S210    394601.38718994  2188208.841687448
S210  394556.1058178738 2188213.5609257324
S210 394552.65543470014 2188216.6688936823
S210  394675.7536597961 2188272.3689225656
S210  394733.7423167459  2188277.681974765
S210  394750.1912977621 2188160.2242919593
S211 394743.61107104464  2188107.330904436
S211  394205.0358710446 2188059.3765044357
S211 394552.65547104465  2188216.668904436
S211  394556.1057710446  2188213.560904436
S211  394601.3871710446 2188208.8417044356
S211  394627.0066710446 2188188.9882044354
S211 394686.26327104465 2188182.8126044357
S211  394711.1057710446  2188163.560904436
S211  394750.1912710446  2188160.224304436
S211  394752.4465710446 2188160.0318044354
S211  394755.5772710446 2188121.7645044355
S211  394757.1778710446 2188110.3348044357
S211 394756.52417104464 2188110.1901044357
S211 394743.61107104464  2188107.330904436
S212  395784.9005970218   2188158.41148101
S212 395693.70869702176 2187734.4976810096
S212  395616.8551970218 2187752.0505810096
S212  395473.8309970218 2187813.5532810097
S212  395321.2960970218 2187942.4584810096
S212  395296.6675970218 2187978.8787810095
S212  395472.3845970218 2188423.6746810097
S212 395549.61909702176   2188408.76398101
S212  395819.9748970218 2188340.6283810097
S212  395823.8868970218 2188339.6424810095
S212  395784.9005970218   2188158.41148101
S213  394720.8461542988 2187758.3123929724
S213 394018.96436824615  2187699.474740999
S213  393993.7465039034 2187721.2013065885
S213 393989.58161743014 2187729.4343388164
S213 393938.74650390807 2187731.2013065885
S213  393858.7465039061 2187731.2013065885
S213 393853.74650390615 2187731.2013065885
S213 393848.74650390615 2187731.2013065885
S213 393843.74650390615 2187731.2013065885
S213 393843.74650390836  2187726.201306591
S213 393843.74650390615 2187721.2013065885
S213 393838.74650390615 2187721.2013065885
S213  393833.7465039062 2187721.2013065885
S213  393828.7465039062 2187721.2013065885
S213  393823.7465039062 2187721.2013065885
S213 393818.74650390627 2187721.2013065885
S213 393813.74650390627 2187721.2013065885
S213 393808.74650390627 2187721.2013065885
S213  393803.7465039063 2187721.2013065885
S213 393798.74650390854 2187721.2013065885
S213  393793.7465039063 2187721.2013065885
S213  393788.7465039063 2187721.2013065885
S213  393783.7465039064 2187721.2013065885
S213  393778.7465039064 2187721.2013065885
S213  393773.7465039064 2187721.2013065885
S213 393768.74650390644 2187721.2013065885
S213 393763.74650390644 2187721.2013065885
S213 393758.74650390644 2187721.2013065885
S213  393770.6266918952 2187733.5664188922
S213  393793.1341686998 2187740.8698856914
S213  393860.6874559233  2187811.180626436
S213  394753.3990495759 2187884.9987977105
S213  394761.1058178708 2187856.2232792466
S213  394755.7319775394  2187790.554944284
S213 394741.10581787315 2187783.8416874493
S213   394723.443464356 2187759.5045292494
S213  394720.8461542988 2187758.3123929724
S214  394775.0130390289  2187884.195690438
S214 394782.84790735133 2187788.4280108507
S214 394784.77753316646 2187764.8519471027
S214 394776.86058701074 2187763.0079952264
S214  394720.8461542988 2187758.3123929724
S214   394723.443464356 2187759.5045292494
S214 394741.10581787315 2187783.8416874493
S214  394755.7319775394  2187790.554944284
S214  394761.1058178708 2187856.2232792466
S214  394753.3990495759 2187884.9987977105
S214  394771.8599661792 2187886.5253277933
S214  394775.0130390289  2187884.195690438
S215 394766.69022410526 2187985.9278141293
S215 394769.48532416497 2187951.7625204474
S215 393925.41885603487 2187880.9468062436
S215  393931.1964550765 2187898.7513554217
S215 394013.74650390557 2187986.2013065917
S215  394041.2965527348 2187988.6512577627
S215 394051.23643310403 2187993.7721073683
S215  394080.0482311997  2187983.910046822
S215 394106.33012206893  2188003.852673778
S215 394145.43244751124 2188003.0549442843
S215 394175.29862792813 2188018.4400761207
S215  394181.1964550779 2188049.2396366717
S215 394178.99888176087 2188053.5054827263
S215  394205.0358926142 2188059.3764670943
S215  394743.6110256472  2188107.330899916
S215 394766.69022410526 2187985.9278141293
S216 394836.10580430244 2188004.6260419143
S216 394830.43530430243 2187973.3027419145
S216  394813.5896043024 2187974.3068419145
S216  394797.7066043024 2187953.8113419143
S216 394775.01390430244 2187951.6782419146
S216  394773.1271043024 2187952.0680419146
S216  394769.4853043024 2187951.7625419144
S216 394766.69020430243 2187985.9278419144
S216  394743.6110043024 2188107.3309419146
S216  394756.5242043024 2188110.1900419146
S216  394757.1779043024 2188110.3348419145
S216 394912.22960430244 2188127.8410419147
S216  394919.4750043024 2188122.3321419144
S216  394861.3872043024 2188068.5609419146
S216 394833.90610430244 2188062.1669419142
S216  394816.3872043024 2188037.0863419143
S216  394821.2816043024 2188017.8712419146
S216 394836.10580430244 2188004.6260419143
S217  395103.3311877591 2187982.5402631867
S217  394797.7066030516   2187953.81136939
S217  394813.5896291287 2187974.3067985224
S217  394830.4353306906  2187973.302734364
S217 394836.10581628705 2188004.6260054563
S217 394821.28160691145  2188017.871225085
S217 394816.38720232307 2188037.0863190284
S217  394833.9061127709 2188062.1669022343
S217 394861.38720232295 2188068.5609237165
S217   394919.475039095 2188122.3321249713
S217  395103.3311877591 2187982.5402631867
S218 394742.60939792055 2188280.2745213136
S218  394733.7423167459  2188277.681974765
S218  394675.7536597961 2188272.3689225656
S218  394700.1532843001  2188361.952305132
S218  394734.0057999986 2188367.8536000014
S218 394738.47109999886 2188330.8581000026
S218 394742.60939792055 2188280.2745213136
S219 394928.7163788094  2187599.382684066
S219 394924.3079788094  2187585.570484066
S219 394879.3801788094  2187596.774884066
S219 394805.4073788094  2187592.864884066
S219 394798.8662788094  2187592.715484066
S219 394796.9515788094 2187616.1094840663
S219 394793.1643788094  2187662.382084066
S219 394776.8605788094  2187763.007984066
S219 394784.7775788094  2187764.851984066
S219 394900.1654788094  2187791.727184066
S219 394992.6934788094  2187799.835084066
S219 394928.7163788094  2187599.382684066
S220  394613.8927518385 2187389.5257292516
S220 394018.74646726716 2187338.4872632455
S220 394018.74646726716  2187341.201322918
S220 394041.43246726884 2187343.5151229184
S220  394046.0604672675 2187348.8874229183
S220  394073.5099672686 2187355.1234229184
S220  394089.2971672655 2187373.4474229184
S220 394117.82836726715 2187357.5288229184
S220  394141.0604672694 2187363.8874229183
S220  394251.4324672681 2187368.5151229184
S220 394274.91746726714 2187386.9081229186
S220   394302.936067268 2187404.4569229176
S220  394308.7464672684  2187411.201322918
S220  394321.1511672678  2187418.796522917
S220  394341.3418672675  2187423.606122918
S220  394361.1511672677  2187438.796522919
S220 394371.34186726966  2187443.606122918
S220  394390.2400672683  2187453.606122918
S220  394426.3418672694  2187448.796522919
S220  394439.0219672687 2187442.0869229166
S220  394462.5581672681  2187454.541122919
S220  394495.9112672653  2187453.219122917
S220 394543.74648558785 2187496.2013147557
S220   394546.196461173 2187483.6512403414
S220   394551.296560002 2187473.7513391683
S220 394557.42114637734 2187442.3780436623
S220  394613.8927518385 2187389.5257292516
S221  394924.3079702888  2187585.570468682
S221  394929.8646919114 2187426.6522308905
S221 394822.69034357683 2187407.4317614646
S221  394812.9766864937 2187406.5987390443
S221 394798.86631490133 2187592.7155105704
S221 394805.40742235084 2187592.8649158543
S221  394879.3801945871 2187596.7749175327
S221  394924.3079702888  2187585.570468682
S222 394798.86631490133 2187592.7155105704
S222  394812.9766864937 2187406.5987390443
S222  394613.8927518385 2187389.5257292516
S222 394557.42114637734 2187442.3780436623
S222   394551.296560002 2187473.7513391683
S222   394546.196461173 2187483.6512403414
S222 394543.74648558785 2187496.2013147557
S222  394546.0604992669 2187498.8874638183
S222 394553.60597046046  2187547.525769483
S222 394523.07389648317 2187566.6493046363
S222  394538.4756238492 2187594.2542784177
S222  394796.9515994588  2187616.109435194
S222 394798.86631490133 2187592.7155105704
S223  395099.9356611009 2187151.9528060965
S223  394971.6487611009 2187136.5889060963
S223 394957.05546110094 2187409.2411060967
S223  395077.9896611009 2187417.6612060964
S223  395086.7534611009 2187337.2314060964
S223  395106.8515611009 2187152.7810060964
S223  395099.9356611009 2187151.9528060965
S224  395887.5046111446 2188704.8755332655
S224 395549.61911114457 2188408.7640332654
S224  395472.3845111446 2188423.6747332653
S224  395405.1692111446  2188559.816533265
S224  395468.2311111446 2188580.6532332655
S224  395526.0708111446 2188599.7656332655
S224  395585.3792111446 2188622.7005332652
S224  395632.1210111446 2188643.7941332655
S224  395674.0900111446 2188666.0009332653
S224  395772.6880111446 2188726.1061332654
S224  395830.7746111446 2188767.7714332654
S224  395880.2493111446  2188790.344233265
S224  395893.6245111446 2188797.8720332654
S224  395895.0413111446 2188806.3512332654
S224 395908.55171114457 2188807.5094332653
S224  395915.0758111446 2188808.0686332653
S224  395907.9890111446  2188804.286933265
S224  395905.2876111446 2188788.6582332654
S224  395901.9130111446 2188780.7108332654
S224  395889.9865111446 2188718.2692332654
S224  395887.5046111446 2188704.8755332655
S225  394623.7465039056 2187721.2013065885
S225 394556.19645507657 2187718.7513554175
S225 394536.29655273305 2187703.6512577636
S225  394521.1964550767  2187698.751355418
S225 394501.29655273317 2187683.6512577636
S225  394269.6898022469 2187675.5506718266
S225 394256.29655273404 2187668.6512577618
S225  394246.1964550799 2187663.7513554203
S225  394231.2965527341 2187653.6512577636
S225 394200.70832641504  2187648.751355418
S225  394181.2965527343  2187658.751355418
S225  394150.7083264152 2187663.6512577636
S225 394131.29655273445 2187653.6512577636
S225  394100.7083264154  2187648.751355418
S225  394081.2965527346  2187658.751355418
S225  394066.1964550783 2187663.6512577636
S225 394056.29655273695  2187668.751355418
S225 394043.74650390545 2187671.2013065885
S225  394020.6059399403  2187698.060437448
S225 394018.96436824615  2187699.474740999
S225  394720.8461542988 2187758.3123929724
S225 394711.10581787326 2187753.8416874493
S225 394694.07914550893 2187744.5893681147
S225  394651.1058178712  2187738.841687454
S225  394623.7465039056 2187721.2013065885
S226 394793.16434128955 2187662.3820941546
S226  394796.9515994588  2187616.109435194
S226  394538.4756238492 2187594.2542784177
S226  394551.2548962395 2187617.1589481914
S226  394556.2646618642   2187655.44752241
S226  394575.8448925768  2187672.317029245
S226 394596.43250854476  2187678.515149364
S226 394606.06065185444  2187683.887463818
S226 394616.43235595693  2187688.515149364
S226  394621.0606518544 2187713.8874638174
S226  394623.7465039056 2187721.2013065885
S226  394651.1058178712  2187738.841687454
S226 394694.07914550893 2187744.5893681147
S226 394711.10581787326 2187753.8416874493
S226  394720.8461542988 2187758.3123929724
S226 394776.86058701074 2187763.0079952264
S226 394793.16434128955 2187662.3820941546
S227  394753.3990938519 2187884.9987632073
S227 393860.68749385193  2187811.180663207
S227 393924.24649385194  2187877.334163207
S227  393925.4188938519  2187880.946763207
S227 394769.48529385193  2187951.762563207
S227  394773.1270938519 2187952.0680632074
S227  394775.0138938519 2187951.6782632074
S227  394773.4566938519  2187919.510663207
S227  394772.1720938519  2187918.921063207
S227 394751.43759385194 2187909.4044632073
S227  394750.6046938519  2187895.432263207
S227  394753.3990938519 2187884.9987632073
S228  394772.9612433999  2187909.275357389
S228  394771.8599661792 2187886.5253277933
S228  394753.3990495759 2187884.9987977105
S228  394750.6047192377 2187895.4322636197
S228  394751.4375439477 2187909.4044315903
S228 394772.17212051706  2187918.921027708
S228  394772.9612433999  2187909.275357389
S229 394900.16552217747 2187791.7271954943
S229  394784.7775221775  2187764.851995494
S229 394782.84792217746 2187788.4279954946
S229  394775.0130221775 2187884.1956954943
S229 394771.85992217745 2187886.5252954946
S229  394772.9612221775 2187909.2753954944
S229  394772.1721221775 2187918.9209954944
S229 394773.45672217745 2187919.5105954944
S229  394775.0139221775  2187951.678195494
S229  394797.7066221775 2187953.8113954943
S229  395103.3312221775 2187982.5402954943
S229  395153.9122221775 2187955.1526954942
S229  395058.8889221775  2187856.704795494
S229 394992.69342217746 2187799.8350954945
S229 394900.16552217747 2187791.7271954943
S230  395077.9896129316  2187417.661224974
S230  394957.0555129316 2187409.2411249736
S230  394929.8647129316  2187426.652224974
S230  394924.3080129316 2187585.5704249735
S230  394928.7163129316  2187599.382724974
S230 394964.19511293166  2187601.258024974
S230 395069.67261293164  2187577.305724974
S230 395090.25761293166 2187572.6315249735
S230  395106.9603129316  2187421.373124974
S230 395081.00351293164  2187418.047424974
S230  395077.9896129316  2187417.661224974
S231 395090.25764933164 2187572.6315306635
S231  395069.6726149011   2187577.30571057
S231 394964.19512235007 2187601.2580158534
S231  394928.7163312113 2187599.3826965573
S231   394992.693469024 2187799.8351148413
S231 395058.88889212004  2187856.704801026
S231 395090.25764933164 2187572.6315306635
S232 394912.2295686337 2188127.8410884067
S232 394757.1778686337 2188110.3347884067
S232 394755.5772686337 2188121.7644884065
S232 394752.4465686337 2188160.0317884064
S232 394750.1912686337  2188160.224288407
S232 394733.7422686337 2188277.6819884065
S232 394742.6093686337 2188280.2744884067
S232 394738.4710686337 2188330.8580884067
S232 394734.0057686337 2188367.8535884065
S232 394741.3813686337  2188369.138488407
S232 394758.0524686337 2188372.0399884065
S232 394777.5331686337 2188378.5897884066
S232 394829.6779686337 2188389.7066884064
S232 394872.5917686337 2188398.8118884065
S232 394858.6519686337  2188314.202888407
S232 394880.5421686337  2188238.061188407
S232 394912.2295686337 2188127.8410884067
S233 395015.31044165086 2183879.3109327387
S233   394933.435631113  2183808.020280628
S233   394876.947054337  2183879.039730656
S233  394844.6950120566 2183938.3555588117
S233  394900.9201533496  2183997.552509049
S233  395026.7243138984 2184000.6573043703
S233 395020.90649999963 2183952.3565999996
S233 395014.46850000025  2183891.776500001
S233 395015.31044165086 2183879.3109327387
S234 394732.64111912757 2183941.827887102
S234 394766.38811912754 2183937.117287102
S234 394844.69501912757 2183938.355587102
S234 394876.94701912755 2183879.039687102
S234  394792.5913191276 2183726.499587102
S234  394771.1746191276 2183765.198287102
S234 394762.86031912756 2183764.856587102
S234  394746.0701191276 2183786.751787102
S234 394747.11381912755 2183813.081187102
S234 394722.38331912755 2183835.994987102
S234 394714.66051912756 2183852.358487102
S234  394712.9064191276 2183853.118487102
S234  394712.5681191276 2183863.933087102
S234  394731.7737191276 2183941.783987102
S234 394732.64111912757 2183941.827887102
S235 396225.7776448556 2184001.8218300254
S235 396243.6254448556 2183987.4364300254
S235 396293.2229448556 2183989.3871300253
S235 396293.7845448556  2183947.008130025
S235 396310.4701448556 2183933.5595300253
S235 396294.1024448556 2183923.0170300254
S235 396251.0269448556 2183895.2719300254
S235 396201.1061448556 2183952.5397300255
S235 396200.8863448556  2183952.338730025
S235 396151.5501448556  2183951.317030025
S235 396150.9321448556  2183981.600730025
S235 396204.5204448556  2183964.671730025
S235 396216.9459448556 2183986.3871300253
S235 396225.7776448556 2184001.8218300254
S236 396141.89336310036  2183984.456174394
S236  396143.6967631004 2183983.5061743944
S236 396144.76706310036  2183983.548274394
S236  396150.9321631004  2183981.600674394
S236 396151.55016310036 2183951.3170743943
S236 396144.42646310036 2183951.1695743944
S236 396076.14956310036 2183949.7556743943
S236  396073.0558631004  2183955.683974394
S236 396092.97416310036 2183999.9101743945
S236 396141.89336310036  2183984.456174394
S237 396145.9333437162  2183884.391845909
S237 396089.8860437162  2183883.239645909
S237 396076.1495437162 2183949.7556459093
S237 396144.4264437162  2183951.169545909
S237 396151.5501437162 2183951.3170459094
S237 396151.6545437162 2183946.2013459094
S237 396150.8824437162  2183908.364345909
S237 396165.1350437162  2183894.671045909
S237 396158.9280437162 2183884.6589459092
S237 396145.9333437162  2183884.391845909
S238   396147.524247116 2183813.8913730173
S238 396077.52624711604 2183812.5609730175
S238   396078.373947116 2183865.4916730174
S238   396089.886047116  2183883.239573017
S238   396145.933347116  2183884.391773017
S238 396158.92804711603 2183884.6589730172
S238 396164.53114711604 2183877.1514730174
S238   396151.296547116  2183864.436173017
S238 396168.77484711603  2183843.802673017
S238 396189.73944711604  2183843.375273017
S238   396192.947447116 2183839.0769730173
S238   396180.922447116  2183814.526073017
S238   396147.524247116 2183813.8913730173
S239  396371.0724247269 2183982.3622120074
S239 396371.42751457065 2183963.6466370397
S239 396328.93608130154 2183931.5131666176
S239 396310.47012045106  2183933.559491129
S239 396293.78452165495  2183947.008126913
S239 396293.22299060447  2183989.387178356
S239  396369.8494713367 2183990.2079980527
S239  396371.0724247269 2183982.3622120074
S240  396369.8494713367 2183990.2079980527
S240 396293.22299060447  2183989.387178356
S240  396243.6254739937 2183987.4364702012
S240   396225.777635521   2184001.82187276
S240  396263.7450595007  2184290.310978035
S240  396282.8590522751  2184303.267365848
S240   396320.836939417  2184304.644831759
S240  396369.8494713367 2183990.2079980527
S241  395918.1936460212 2183977.6022308404
S241  395865.7437460212   2183941.91353084
S241  395798.9906460212 2183980.5773308403
S241  395796.0030460212   2183999.93733084
S241 395793.80474602117   2184034.39053084
S241  395778.3091460212   2184109.80473084
S241  395815.2781460212   2184121.66593084
S241 395864.39914602117 2184121.0902308403
S241  395883.8239460212 2184114.9770308402
S241  395914.1553460212 2184105.4312308403
S241 395960.00944602117 2184080.8615308404
S241  395976.2509460212   2184072.15893084
S241  395918.1936460212 2183977.6022308404
S242 396755.08211330243 2183995.3515365524
S242  396755.8699164081  2183940.193530639
S242  396667.7514648725  2183939.110107168
S242  396666.8557728768  2183940.192361409
S242  396665.5522661408 2183996.7162492275
S242 396666.07910266507 2184000.4098810703
S242 396755.08211330243 2183995.3515365524
S243  396133.1514095159 2184327.6990539874
S243  395976.2510095159  2184072.158953987
S243  395960.0094095159  2184080.861553987
S243  395914.1554095159 2184105.4312539874
S243 395883.82400951587  2184114.976953987
S243  395864.3992095159 2184121.0902539873
S243 395815.27820951585 2184121.6659539873
S243 395778.30910951586  2184109.804753987
S243 395746.51250951586  2184264.552553987
S243 396130.63000951585  2184790.261453987
S243  396131.3990095159  2184791.314053987
S243 396320.25870951585  2184808.945353987
S243  396319.3021095159  2184800.395753987
S243 396290.06660951587 2184668.9161539874
S243  396281.0976095159 2184649.5305539872
S243  396139.8009095159  2184344.131053987
S243  396133.1514095159 2184327.6990539874
S244 396448.21103473095  2183937.341302069
S244 396410.90934480575  2183931.471068338
S244 396371.42751457065 2183963.6466370397
S244  396371.0724247269 2183982.3622120074
S244  396434.8913113684  2183990.904745056
S244  396447.8401859062  2183991.043467534
S244 396448.21103473095  2183937.341302069
S245 396216.94593960803 2183986.3871460063
S245   396204.520439608  2183964.671646006
S245   396150.932139608 2183981.6007460062
S245   396150.887539608 2183983.7890460063
S245   396150.124039608  2184021.201246006
S245 396151.70573960803  2184098.701246006
S245 396151.14453960804  2184126.201246006
S245   396152.024039608  2184169.301246006
S245   396179.872939608 2184182.8120460063
S245   396188.382739608  2184217.719246006
S245   396227.402239608 2184275.2827460063
S245 396261.29653960804  2184288.651246006
S245 396263.74503960804 2184290.3109460063
S245   396225.777639608  2184001.821846006
S245 396216.94593960803 2183986.3871460063
S246  396150.8875613756  2183983.789032893
S246 396150.93216137565 2183981.6007328928
S246 396144.76706137566  2183983.548332893
S246 396143.69676137564  2183983.506232893
S246 396141.89336137567  2183984.456132893
S246 396092.97416137566  2183999.910132893
S246  396094.1617613756 2184009.5996328928
S246 396025.67246137565  2184045.677632893
S246 395976.25096137566  2184072.158932893
S246 396133.15136137564  2184327.699032893
S246 396139.80086137564  2184344.131032893
S246 396281.09756137565  2184649.530632893
S246  396290.0665613756  2184668.916132893
S246  396290.3580613756  2184608.991532893
S246 396290.90426137566  2184496.675832893
S246 396320.83696137567  2184304.644832893
S246  396282.8590613756  2184303.267332893
S246 396263.74506137567  2184290.310932893
S246  396261.2965613756 2184288.6512328926
S246  396227.4022613756  2184275.282732893
S246 396188.38276137563  2184217.719232893
S246 396179.87296137563  2184182.812032893
S246 396152.02406137565  2184169.301332893
S246 396151.14456137567 2184126.2013328928
S246 396151.70576137566 2184098.7013328928
S246  396150.1240613756 2184021.2013328928
S246  396150.8875613756  2183983.789032893
S247 396755.08211330243 2183995.3515365524
S247 396666.07910266507 2184000.4098810703
S247 396665.82651188585  2184017.707305138
S247 396762.44607382314 2184023.3377096495
S247 396755.08211330243 2183995.3515365524
S248 396665.82651188585  2184017.707305138
S248 396666.07910266507 2184000.4098810703
S248  396665.5522661408 2183996.7162492275
S248 396525.15450524696  2183992.552066874
S248  396523.7873978844  2184002.803991535
S248  396523.4326457682  2184020.536161606
S248 396663.12121829443 2184027.4419039297
S248 396665.82651188585  2184017.707305138
S249 396873.80867932935 2183862.6043334217
S249  396755.8699164081  2183940.193530639
S249 396755.08211330243 2183995.3515365524
S249 396762.44607382314 2184023.3377096495
S249  396781.8825249493  2184050.891952641
S249 396873.80867932935 2183862.6043334217
S250  396666.8557728768  2183940.192361409
S250 396531.84942885896 2183939.9876559316
S250  396526.0341328862  2183949.588456543
S250 396525.15450524696  2183992.552066874
S250  396665.5522661408 2183996.7162492275
S250  396666.8557728768  2183940.192361409
S251 397093.74655070936  2184381.201310156
S251  397096.1964518096  2184373.651285066
S251  397101.2965518113 2184358.7513850653
S251 397109.41815181234 2184325.4358850652
S251 397186.19645181147 2184238.6512850663
S251  397191.2965518109 2184233.7513850657
S251 397196.94295181293 2184187.5416850657
S251 397221.19645181135 2184164.2396850656
S251  397216.2965518131 2184133.6512850644
S251 397208.12215181085  2184101.756085065
S251 397301.19645181106  2184013.651285065
S251  397348.7513518124 2184007.0130850645
S251 397384.60705181275 2183969.6937850653
S251 397401.29655181244  2183958.751385065
S251  397438.5579518114  2183933.493785064
S251  397524.6992518111 2183935.2515850654
S251 397596.29655181174  2183858.751385065
S251  397610.7325518107 2183828.9954850655
S251  397646.1964518121  2183813.651285066
S251  397672.5514518109 2183803.2557850643
S251 397691.19645181415  2183793.651285066
S251 397706.29655181133 2183788.7513850653
S251  397716.1964518119  2183783.651285066
S251  397726.2965518113 2183778.7513850653
S251 397752.55325181124  2183758.828285066
S251  397780.7087518116 2183758.2532850658
S251  397796.1964518116 2183768.7513850653
S251  397838.8813518131 2183775.6995850652
S251   397856.296551813 2183798.6512850635
S251  397866.1964518113 2183813.7513850653
S251  397873.7465518126  2183816.201285066
S251 397901.43265181093  2183783.886885066
S251 397906.06035181094  2183758.515785065
S251   397914.118251813  2183751.573585066
S251  397921.0603518109  2183743.515785065
S251  397937.1760518117  2183729.631485066
S251  397954.6455518126 2183709.3543850644
S251  398015.8857518129  2183714.275085064
S251  398044.7413518123  2183693.814785066
S251 398066.43265181256  2183688.886885064
S251  398091.0933518116 2183668.4876850653
S251   398105.376751813  2183669.636385065
S251  398121.0603518124 2183658.5157850655
S251 398141.43265181227  2183653.886885064
S251  398143.7465518117  2183651.201285064
S251   398142.066851812  2183642.880985064
S251 398133.32415181154 2183625.2930850657
S251   398147.066851812  2183609.521585065
S251  398150.4261518126 2183582.8809850644
S251 398157.06685181195  2183569.521585065
S251 398158.74655181164 2183556.2012850647
S251  398156.0603518123 2183548.8868850647
S251 398151.25505181286  2183512.158385065
S251    398149.10081811 2183508.2973088375
S251 396882.29533497634  2183855.103036399
S251 396873.80867932935 2183862.6043334217
S251  396781.8825249493  2184050.891952641
S251 396853.36212223466 2184321.7348883464
S251  396865.9886507101  2184317.279210156
S251 396871.54005071137 2184274.8518101554
S251 396882.50810070854  2184250.271760154
S251  396945.7389507101  2184240.462760155
S251 396951.06065071136  2184263.887460154
S251  396969.7657507102 2184272.2340101544
S251 396986.43235070945  2184293.515160154
S251  396992.2337507113  2184319.051660154
S251 397027.08575070946 2184349.0785101536
S251  397036.0606507088  2184378.887460156
S251  397046.4323507115  2184393.515160156
S251   397053.125750711 2184408.5151601536
S251  397069.3977507094 2184402.8559601544
S251  397086.0606507086 2184383.5151601536
S251 397093.74655070936  2184381.201310156
S252 397093.74655070936  2184381.201310156
S252  397086.0606507086 2184383.5151601536
S252  397069.3977507094 2184402.8559601544
S252   397053.125750711 2184408.5151601536
S252  397046.4323507115  2184393.515160156
S252  397036.0606507088  2184378.887460156
S252 397027.08575070946 2184349.0785101536
S252  396992.2337507113  2184319.051660154
S252 396986.43235070945  2184293.515160154
S252  396969.7657507102 2184272.2340101544
S252 396951.06065071136  2184263.887460154
S252  396945.7389507101  2184240.462760155
S252 396882.50810070854  2184250.271760154
S252 396871.54005071137 2184274.8518101554
S252  396865.9886507101  2184317.279210156
S252 396853.36212223466 2184321.7348883464
S252    397100.29613191 2185257.3911346933
S252   398247.513755402  2185778.832826851
S252 398458.74654960743 2185841.7267525704
S252 398458.74654960743 2185841.2013352425
S252 398458.74654960743 2185831.2013352425
S252 398458.74654960743 2185821.2013352425
S252 398458.74654960743 2185816.2013352425
S252 398458.74654960743 2185811.2013352425
S252 398458.74654960743 2185806.2013352425
S252 398458.74654960743  2185801.201335243
S252 398458.74654960743  2185796.201335243
S252 398458.74654960743  2185791.201335243
S252 398458.74654960743  2185786.201335243
S252 398458.74654960743  2185781.201335243
S252 398458.74654960743  2185776.201335243
S252 398458.74654960743  2185771.201335243
S252 398458.74654960743  2185766.201335243
S252 398458.74654960743  2185761.201335243
S252  398453.7465496075  2185761.201335243
S252  398453.7465496075  2185751.201335243
S252  398443.7465496075  2185751.201335243
S252  398443.7465496075  2185746.201335243
S252  398443.7465496075  2185741.201335243
S252  398448.7465496075  2185741.201335243
S252  398448.7465496075  2185736.201335243
S252  398453.7465496075  2185736.201335243
S252  398453.7465496075  2185731.201335243
S252 398458.74654960743  2185731.201335243
S252 398458.74654960743  2185726.201335243
S252 398458.74654960743  2185721.201335243
S252  398458.7465496097  2185716.201335243
S252 398458.74654960743  2185711.201335243
S252 398458.74654960743  2185706.201335243
S252 398458.74654960743  2185701.201335243
S252 398458.74654960743  2185696.201335243
S252 398458.74654960743  2185691.201335243
S252 398458.74654960743  2185686.201335243
S252 398458.74654960743  2185681.201335243
S252 398458.74654960743  2185676.201335243
S252 398458.74654960743 2185671.2013352434
S252 398458.74654960743 2185666.2013352434
S252 398458.74654960743 2185661.2013352434
S252 398458.74654960743 2185656.2013352434
S252 398458.74654960743 2185651.2013352434
S252 398458.74654960743 2185646.2013352434
S252 398458.74654960743 2185641.2013352434
S252 398458.74654960743 2185636.2013352434
S252 398446.18184960826 2185624.9751352435
S252  398441.3868496073  2185553.560935243
S252  398431.1189496085  2185534.665035243
S252 398426.38684960734  2185238.560935244
S252 398408.87654960784  2185215.965135243
S252 398411.86604960734  2185165.803335243
S252  398405.9114496085  2185137.932235243
S252 398386.10614960693  2185128.841735244
S252  398376.3868496075 2185123.5609352444
S252   398361.106149607  2185118.841735244
S252 398336.18054960866  2185109.898235243
S252  398325.6105496065 2185086.8690352426
S252 398326.69324960833  2185068.701335242
S252  398324.5582496082 2185032.8742352426
S252  398335.1350496065  2185003.396735242
S252 398316.10614960716  2184978.841735242
S252  398309.2964496073 2184935.1448352425
S252 398336.38684960763 2184928.8417352443
S252 398391.10614960914  2184877.244435244
S252 398381.10614960693 2184858.8417352447
S252 398376.21234960645  2184827.440935243
S252 398364.47954960924 2184805.8491352424
S252  398366.7439496057 2184767.8578352425
S252  398389.8841496077 2184757.2370352442
S252 398385.97184960725  2184691.591935242
S252   398366.106149607  2184673.841735243
S252  398361.3868496076  2184666.179335242
S252  398383.7465496077 2184646.2013352425
S252  398383.7465496077 2184641.2013352425
S252 398458.74654960743 2184641.2013352425
S252 398458.74654960743 2184636.2013352425
S252  398453.7465496075 2184636.2013352425
S252  398448.7465496075 2184636.2013352425
S252  398443.7465496075 2184636.2013352425
S252  398443.7465496075 2184621.2013352425
S252  398443.7465496075 2184606.2013352425
S252  398443.7465496075 2184601.2013352425
S252  398443.7465496075 2184596.2013352425
S252 398438.74654960755 2184596.2013352425
S252 398438.74654960755 2184591.2013352425
S252 398433.74654960755 2184591.2013352425
S252 398433.74654960755 2184586.2013352425
S252 398433.74654960755 2184581.2013352425
S252 398428.74654960755 2184581.2013352425
S252 398428.74654960755 2184576.2013352425
S252 398423.74654960533 2184576.2013352425
S252  398391.1512496072  2184578.606135243
S252  398386.3417496094  2184583.796535244
S252 398381.15124960727  2184588.606135243
S252  398376.3417496072  2184593.796535242
S252  398365.1637496082 2184604.1535352436
S252  398350.5793496079  2184603.575535242
S252 398338.56274960743 2184590.6068352438
S252 398326.34174960956  2184603.796535244
S252 398321.15124960744  2184608.606135243
S252  398316.3417496074  2184613.796535244
S252  398265.6074496084  2184618.606135243
S252 398256.34174960764  2184608.606135243
S252  398231.1512496078  2184603.796535244
S252  398226.3417496077 2184580.1289352435
S252 398246.34174960764  2184573.796535242
S252 398251.15124960773 2184556.3734352435
S252  398220.6074496063 2184538.7965352423
S252 398211.34174960776  2184548.796535244
S252 398204.51794960623  2184555.119135244
S252  398165.6977496082  2184553.580435243
S252 398143.88934960606 2184519.8084352436
S252 398131.15124960814 2184513.7965352423
S252  398121.3417496081 2184508.6061352435
S252 398100.24004960794 2184503.7965352423
S252  398036.7665496086  2184572.301735243
S252 398029.30554960785 2184588.1117352434
S252 398011.34174960846  2184578.606135243
S252  398001.1512496086  2184573.796535242
S252  397959.3800496085  2184549.568035243
S252   397933.435849607 2184541.3539352426
S252  397941.3417496065 2184518.7965352423
S252 397946.15124960657 2184500.5952352434
S252 397917.75404960813 2184487.1937352433
S252  397911.3417496066 2184453.6061352435
S252 397901.57604960696  2184444.557635244
S252 397896.34174960665 2184373.6061352417
S252  397889.6937496083 2184361.0426352434
S252  397839.7389496076 2184397.1937352433
S252  397808.0543496069 2184412.1467352435
S252  397770.7826496072 2184440.7282352434
S252 397742.98844960786 2184488.0049352427
S252 397695.67704960745 2184531.8415352437
S252  397696.5437496069  2184553.701335244
S252  397696.1207496072 2184564.3684352436
S252  397670.9437496074 2184587.6966352426
S252  397641.3417496075  2184563.606135243
S252 397584.86644960765  2184557.595335244
S252  397542.5428496071  2184503.775135244
S252  397507.1717496062 2184498.7965352423
S252  397453.0885496061  2184531.911735242
S252  397409.6217496084 2184545.6733352426
S252 397376.34174960846  2184573.796535242
S252  397335.2400496062  2184578.606135243
S252  397313.4596496076 2184567.0808352437
S252 397268.86494960677 2184518.9509352427
S252  397231.1512496091 2184513.7965352423
S252  397213.6213496073  2184501.734135243
S252 397205.57024960796 2184459.5655352427
S252 397181.15124960704 2184443.7965352423
S252 397151.34174960706 2184418.6061352435
S252 397122.36774960806 2184413.0744352434
S252  397098.6760496082 2184396.7713352432
S252 397093.74655070936  2184381.201310156
S253 396853.36212223466 2184321.7348883464
S253  396781.8825249493  2184050.891952641
S253 396762.44607382314 2184023.3377096495
S253 396665.82651188585  2184017.707305138
S253 396663.12121829443 2184027.4419039297
S253  396686.7838509336 2184328.6425874447
S253  396695.2754507113 2184322.7302601538
S253 396703.36595071055  2184295.858310155
S253  396743.7465507106  2184299.102910154
S253  396761.8559507094  2184297.647860155
S253 396821.43235071003  2184308.515160156
S253  396848.3171507097  2184323.515160156
S253 396853.36212223466 2184321.7348883464
S254 396853.36212223466 2184321.7348883464
S254  396848.3171507097  2184323.515160156
S254 396821.43235071003  2184308.515160156
S254  396761.8559507094  2184297.647860155
S254  396743.7465507106  2184299.102910154
S254 396703.36595071055  2184295.858310155
S254  396695.2754507113 2184322.7302601538
S254  396686.7838509336 2184328.6425874447
S254  396745.6104948776  2185077.444722917
S254 396864.62106815894 2185162.1411615084
S254    397100.29613191 2185257.3911346933
S254 396853.36212223466 2184321.7348883464
S255  395991.4960165366 2185865.2157117478
S255  395888.0007248034  2185637.300117622
S255  395882.9288880856  2185626.660138795
S255 395667.26806007605 2185728.7069405583
S255  395654.5754470102 2185766.9352120114
S255  395694.5416271746  2185943.233479073
S255  395806.7344999991  2185922.011900003
S255  395991.4960165366 2185865.2157117478
S256 396067.78837440116  2186172.398567575
S256  396061.7438248029 2186115.3150176215
S256  396048.0667248032  2186036.862817622
S256  395991.4960165366 2185865.2157117478
S256  395806.7344999991  2185922.011900003
S256  395694.5416271746  2185943.233479073
S256  395715.5678458487  2186035.984047177
S256  395773.7791426737 2186225.4841353255
S256 396067.78837440116  2186172.398567575
S257   398247.513755402  2185778.832826851
S257    397100.29613191 2185257.3911346933
S257 396864.62106815894 2185162.1411615084
S257  395882.9288880856  2185626.660138795
S257  395888.0007248034  2185637.300117622
S257  395991.4960165366 2185865.2157117478
S257  396048.0667248032  2186036.862817622
S257  396061.7438248029 2186115.3150176215
S257 396067.78837440116  2186172.398567575
S257   398247.513755402  2185778.832826851
S258  396073.0559056575  2183955.684002384
S258  396076.1495183742  2183949.755644317
S258 396089.88605287543 2183883.2396116587
S258 396078.37397692335 2183865.4916868885
S258  395878.1953443026  2183893.293587595
S258 395865.74370341963  2183941.913498491
S258 395918.19366265653  2183977.602276195
S258  396073.0559056575  2183955.684002384
S259 395666.26080105203  2184086.084001706
S259  395669.9271010521 2184075.0314017064
S259 395678.67820105207  2184077.839101706
S259   395796.003101052 2183999.9374017064
S259 395798.99070105207  2183980.577301706
S259 395702.79940105206  2183951.360601706
S259   395551.541301052 2183905.4182017064
S259 395391.00020105205 2184009.5068017063
S259 395496.85700105206 2184161.5366017064
S259 395491.06250105205 2184188.0775017063
S259 395618.86530105205  2184228.963401706
S259 395624.28950105206  2184212.611401706
S259 395666.26080105203  2184086.084001706
S260 395429.11079251114 2184471.8384418804
S260  395260.3575925111 2184416.9576418805
S260  395183.7437925111 2184423.7166418806
S260  395105.7532925111 2184472.8005418805
S260  395231.8506925111 2184736.6131418804
S260  395469.5109925111 2184561.3761418806
S260  395484.7556925111 2184550.1356418803
S260 395479.63879251113 2184542.9357418804
S260 395429.11079251114 2184471.8384418804
S261  395584.2593999996  2184335.876600001
S261  395464.6492402348  2184309.059505978
S261 395429.11076117744  2184471.838471393
S261 395479.63881727995 2184542.9357129717
S261  395489.2956999993  2184525.352700002
S261 395546.35929999937 2184411.9853000036
S261  395584.2593999996  2184335.876600001
S262  396129.2776697778 2184791.6690248884
S262  396130.6299908701 2184790.2614894635
S262 395746.51254445163 2184264.5525628366
S262  395624.2895212297  2184212.611426071
S262 395618.86529999925 2184228.9634000007
S262  395584.2593999996  2184335.876600001
S262 395546.35929999937 2184411.9853000036
S262  395489.2956999993  2184525.352700002
S262 395479.63881727995 2184542.9357129717
S262  395484.7557012159 2184550.1356007433
S262  396074.3345876349  2184800.864027646
S262  396129.2776697778 2184791.6690248884
S263 395778.30914405436 2184109.8048121408
S263  395793.8047440544 2184034.3906121408
S263  395796.0030440544 2183999.9373121406
S263  395678.6781440544 2184077.8391121407
S263  395669.9271440544 2184075.0314121405
S263  395666.2607440544 2184086.0840121405
S263 395624.28954405437 2184212.6114121405
S263 395746.51254405436  2184264.552612141
S263 395778.30914405436 2184109.8048121408
S264  395347.8218595744 2184970.6838428616
S264  395182.2554630874 2184915.7608305947
S264   395170.129958678  2184920.729937744
S264        395234.5711 2185098.3127000006
S264  395254.6559999998  2185171.212800003
S264  395255.5974655408  2185196.576962851
S264 395289.20257830253  2185207.238553489
S264 395293.56499999977  2185186.816200004
S264 395346.37539999996 2184976.6057000007
S264  395347.8218595744 2184970.6838428616
S265 395549.15527422127 2185195.4668475674
S265  395612.4487020104  2185058.467980353
S265  395347.8218595744 2184970.6838428616
S265 395346.37539999996 2184976.6057000007
S265 395293.56499999977  2185186.816200004
S265 395289.20257830253  2185207.238553489
S265  395311.3243635655 2185214.2569325184
S265 395549.15527422127 2185195.4668475674
S266   395170.129958678  2184920.729937744
S266 395157.84511092823 2184925.7643447844
S266 395091.73008158087 2185106.0779191353
S266  395099.1179683212 2185146.9321259316
S266  395255.5974655408  2185196.576962851
S266  395254.6559999998  2185171.212800003
S266        395234.5711 2185098.3127000006
S266   395170.129958678  2184920.729937744
S267  396686.7838509336 2184328.6425874447
S267 396663.12121829443 2184027.4419039297
S267  396523.4326457682  2184020.536161606
S267 396447.12647927454  2184312.056021298
S267  396461.4323507091  2184313.515160156
S267 396479.51765070856  2184323.606110154
S267 396511.14575071033 2184329.3751101545
S267  396536.0606507106  2184348.887460156
S267  396551.4323507088  2184353.515160156
S267  396566.0606507105  2184358.887460156
S267  396581.4323507109  2184363.515160156
S267 396599.35565071023  2184373.515160156
S267 396631.43235071073 2184368.8874601535
S267  396651.0606507102  2184353.515160156
S267  396686.7838509336 2184328.6425874447
S268 396745.61045769334  2185077.444747573
S268  396686.7838576933 2184328.6425475734
S268  396651.0606576933 2184353.5151475733
S268  396631.4323576933 2184368.8874475732
S268 396599.35565769335 2184373.5151475733
S268  396581.4323576933 2184363.5151475733
S268  396566.0606576933 2184358.8874475732
S268  396551.4323576933 2184353.5151475733
S268  396536.0606576933 2184348.8874475732
S268 396511.14575769333  2184329.375147573
S268  396479.5176576933 2184323.6061475733
S268  396461.4323576933 2184313.5151475733
S268 396447.12645769335  2184312.056047573
S268 396438.74655769335  2184311.201347573
S268 396436.29655769333 2184318.7513475735
S268 396432.40215769334  2184368.308847573
S268  396427.2362576933 2184388.0446475735
S268  396396.9972576933 2184417.0973475734
S268 396391.29655769333 2184463.7513475735
S268 396361.19645769335  2184498.651247573
S268 396356.29655769333 2184508.7513475735
S268 396351.19645769335  2184518.651247573
S268  396345.6453576933 2184547.0863475734
S268 396290.35805769335 2184608.9915475734
S268 396290.06655769335 2184668.9161475734
S268  396319.3021576933  2184800.395747573
S268 396320.25865769334  2184808.945347573
S268 396745.61045769334  2185077.444747573
S269  396094.1617578465  2184009.599678218
S269  396092.9741154745  2183999.910143543
S269  396073.0559056575  2183955.684002384
S269 395918.19366265653  2183977.602276195
S269  395976.2509775612 2184072.1589172734
S269 396025.67249166156 2184045.6776750023
S269  396094.1617578465  2184009.599678218
S270   395286.739172711 2185397.0726254485
S270   395277.076172711 2185386.6825254485
S270   395264.408172711 2185438.7372254482
S270 395261.91777271096 2185439.4026254485
S270 395262.96437271097 2185444.6700254483
S270 395254.75977271097 2185478.3835254484
S270   395257.578772711 2185538.7829254484
S270   395281.935872711 2185540.1529254485
S270 395340.49127271096 2185543.4463254483
S270   395410.600872711 2185530.2537254486
S270   395286.739172711 2185397.0726254485
S271 395276.22905868525 2185383.6425320194
S271  395272.0323586852  2185368.583432019
S271  395268.2136586852  2185368.894832019
S271  395257.6475586852 2185368.6790320193
S271  395241.9256586852 2185368.3579320195
S271 395240.55025868525 2185381.6716320193
S271  395232.3750586852  2185389.005032019
S271  395227.2223586852 2185398.6679320196
S271  395225.6929586852 2185409.5162320193
S271 395226.78295868525 2185414.5979320193
S271 395227.98885868525  2185420.220232019
S271  395233.8297586852  2185429.486132019
S271 395241.55005868524  2185435.685132019
S271 395250.80595868523 2185439.2178320196
S271  395260.7148586852 2185439.7240320193
S271 395261.91775868525 2185439.4026320195
S271  395264.4081586852  2185438.737232019
S271  395277.0762586852 2185386.6825320194
S271 395276.22905868525 2185383.6425320194
S273 395544.11197077914 2185529.6495717145
S273  395541.6759563753  2185393.765000072
S273  395333.7314248034 2185392.7256176216
S273  395304.4785248044 2185395.1346176225
S273  395286.3252165358  2185395.540511749
S273  395286.7392068893 2185397.0725782244
S273 395410.60087109834 2185530.2537349453
S273 395544.11197077914 2185529.6495717145
S274  395304.4785495181  2185395.134578524
S274 395333.73144951806  2185392.725578524
S274  395541.6759495181 2185393.7649785243
S274  395538.8072495181 2185233.7454785244
S274 395507.95824951807 2185246.8178785243
S274  395412.9490495181 2185287.0782785243
S274  395336.6696495181 2185319.4018785246
S274  395266.6010495181 2185349.0936785243
S274  395272.0324495181 2185368.5834785243
S274 395276.22904951806 2185383.6424785242
S274  395277.0762495181 2185386.6825785246
S274  395286.7392495181 2185397.0725785242
S274  395286.3252495181 2185395.5404785243
S274  395304.4785495181  2185395.134578524
S275  395882.9288880856  2185626.660138795
S275  395776.9892248042 2185404.4136176235
S275 395771.43022480316  2185394.913417623
S275  395541.6759563753  2185393.765000072
S275 395544.11197077914 2185529.6495717145
S275 395667.26806007605 2185728.7069405583
S275  395882.9288880856  2185626.660138795
S276  396129.2776697778 2184791.6690248884
S276  396074.3345876349  2184800.864027646
S276  395612.4487020104  2185058.467980353
S276 395549.15527422127 2185195.4668475674
S276 395540.15105883416  2185228.774667009
S276 395565.33373637655  2185228.260634002
S276  395595.5040304204  2185240.498813592
S276  395643.7230274883  2185224.851222088
S276 395665.89645844646 2185214.0937489453
S276 395676.29655117216 2185198.7513453304
S276 395681.19645234314  2185188.651246501
S276  395686.6911473153  2185177.985349725
S276 395685.06944526214   2185098.52431994
S276  395701.0093659676 2185098.8496286306
S276   395716.196452343  2185093.651246504
S276  395740.2861326634  2185085.834510272
S276  395750.9965572752   2185063.75744709
S276  395776.2465267581   2185063.24232873
S276  395810.5903627925 2185063.9430205263
S276  395921.1964523445  2184958.651246502
S276  395965.3617744607 2184953.2545322482
S276  396001.1464279283  2184926.101222092
S276  396019.8573466797 2184917.0234426945
S276  396031.1964523441 2184893.6512465025
S276  396058.3412400381 2184884.8426496275
S276   396066.196452344 2184868.6512465025
S276 396111.29655117064  2184818.751345332
S276  396128.5688706073 2184792.4067430845
S276  396129.2776697778 2184791.6690248884
S277   395882.928874018 2185626.6601045304
S277   396864.621074018 2185162.1412045304
S277 396745.61047401803 2185077.4447045303
S277   396320.258674018   2184808.94530453
S277 396131.39907401806   2184791.31400453
S277   396130.629974018 2184790.2615045304
S277 396129.27767401806   2184791.66900453
S277 396128.56887401803   2184792.40670453
S277   396111.296574018 2184818.7513045305
S277 396066.19647401804   2184868.65120453
S277 396058.34127401805 2184884.8426045305
S277 396031.19647401804   2184893.65120453
S277 396019.85737401806 2184917.0234045302
S277 396001.14647401805 2184926.1012045303
S277 395965.36177401803   2184953.25450453
S277 395921.19647401804   2184958.65120453
S277   395810.590374018 2185063.9430045304
S277 395776.24657401803 2185063.2423045305
S277 395750.99657401803 2185063.7574045304
S277 395740.28617401805 2185085.8345045303
S277 395716.19647401804   2185093.65120453
S277 395701.00937401806 2185098.8496045303
S277 395685.06947401806   2185098.52430453
S277   395686.691174018 2185177.9853045302
S277 395681.19647401804   2185188.65120453
S277   395676.296574018 2185198.7513045305
S277 395665.89647401805 2185214.0937045305
S277   395643.723074018 2185224.8512045303
S277 395595.50407401804   2185240.49880453
S277 395565.33377401804   2185228.26060453
S277 395540.15107401804 2185228.7747045304
S277   395538.807274018   2185233.74550453
S277 395541.67597401806   2185393.76500453
S277   395771.430274018 2185394.9134045304
S277 395776.98927401804 2185404.4136045305
S277   395882.928874018 2185626.6601045304
S278  396525.1545000701 2183992.5521101463
S278  396526.0341000701 2183949.5884101465
S278  396448.2110000701 2183937.3413101463
S278 396447.84020007006 2183991.0435101464
S278 396434.89130007004 2183990.9047101466
S278  396371.0724000701 2183982.3622101466
S278  396369.8495000701 2183990.2080101464
S278  396320.8369000701 2184304.6448101467
S278  396431.2966000701 2184308.6513101463
S278  396438.7465000701 2184311.2013101466
S278  396447.1265000701 2184312.0560101466
S278  396523.4326000701 2184020.5362101463
S278 396523.78740007005 2184002.8040101463
S278  396525.1545000701 2183992.5521101463
S279  396427.2362339909  2184388.044646333
S279 396432.40213168995  2184368.308854569
S279 396436.29655117175 2184318.7513453313
S279 396438.74653510755  2184311.201308968
S279  396431.2965522733  2184308.651271414
S279   396320.836939417  2184304.644831759
S279 396290.90429520886  2184496.675834684
S279  396290.3580232853 2184608.9915411533
S279  396345.6453286121  2184547.086325799
S279   396351.196452343 2184518.6512465035
S279 396356.29655117204 2184508.7513453327
S279 396361.19645234296  2184498.651246504
S279 396391.29655116965  2184463.751345331
S279 396396.99724296853 2184417.0973189645
S279  396427.2362339909  2184388.044646333
S280 395667.2680905055 2185728.7069208683
S280 395544.1119905055 2185529.6496208683
S280 395410.6008905055  2185530.253720868
S280 395340.4912905055  2185543.446420868
S280 395281.9357905055 2185540.1529208682
S280 395304.0689905055  2185651.548220868
S280 395340.7772905055  2185836.299920868
S280 395654.5754905055 2185766.9352208683
S280 395667.2680905055 2185728.7069208683
S281 395694.54158763384 2185943.2334592026
S281  395654.5754876338 2185766.9352592025
S281  395340.7772876338  2185836.299859203
S281  395233.8583876338 2185859.9341592025
S281  395202.3901876338 2185871.0728592025
S281  395356.1574876338 2186006.4085592027
S281 395362.52088763384  2186005.668859203
S281  395373.1489876338 2186003.7939592027
S281 395391.34828763385 2186000.5832592025
S281 395694.54158763384 2185943.2334592026
S282  395694.5416271746  2185943.233479073
S282 395391.34829999873  2186000.583300002
S282  395373.1489602369  2186003.793945511
S282  395376.4539601034  2186024.272102093
S282  395377.0173190869 2186024.7679328243
S282  395715.5678458487  2186035.984047177
S282  395694.5416271746  2185943.233479073
S283 395051.11106611346 2185604.0873713857
S283 394982.24966611346 2185565.2066713856
S283 394958.97976611345 2185565.7192713856
S283 394917.26316611347  2185670.236371386
S283 394957.85486611346  2185720.027471386
S283 394938.06436611345 2185744.6317713857
S283 394926.26636611344 2185898.8524713856
S283 395112.46626611345 2185909.6789713856
S283 395135.68076611345 2185915.2553713857
S283  395174.3074661135 2185876.4390713857
S283 395135.64776611346 2185666.6758713857
S283 395063.70136611344 2185611.1962713855
S283 395051.11106611346 2185604.0873713857
S284 396873.80867932935 2183862.6043334217
S284 396882.29533497634  2183855.103036399
S284  396690.0882430674 2183809.6853024047
S284 396665.95218033635  2183875.684636606
S284  396667.7514648725  2183939.110107168
S284  396755.8699164081  2183940.193530639
S284 396873.80867932935 2183862.6043334217
S285   395262.964328529 2185444.6700792825
S285   395261.917728529 2185439.4025792824
S285   395260.714928529 2185439.7239792827
S285   395250.806028529 2185439.2177792825
S285   395241.550128529 2185435.6850792826
S285 395233.82982852904 2185429.4860792826
S285   395227.988928529 2185420.2201792826
S285   395226.783028529 2185414.5979792825
S285 395226.25622852903 2185415.1740792827
S285 395218.84072852903 2185421.1824792824
S285   395216.689428529 2185422.9254792826
S285 395186.26472852903 2185440.8826792827
S285   395160.026328529 2185470.5850792825
S285 395226.20482852904 2185548.8676792826
S285   395257.578728529 2185538.7829792826
S285 395254.75982852903 2185478.3835792826
S285   395262.964328529 2185444.6700792825
S286 395749.84087414277  2186244.689515629
S286  395763.8767784266 2186241.0524110068
S286  395773.7791426737 2186225.4841353255
S286  395715.5678458487  2186035.984047177
S286  395377.0173190869 2186024.7679328243
S286  395400.8907695604  2186155.184673593
S286  395698.3191982128  2186254.392894874
S286 395749.84087414277  2186244.689515629
S287  395376.4540038332 2186024.2721302635
S287  395373.1490038331 2186003.7939302637
S287 395362.52090383315 2186005.6689302637
S287  395356.1575038331 2186006.4085302637
S287  395202.3902038332 2185871.0728302635
S287 395174.30750383314 2185876.4390302636
S287  395135.6808038331 2185915.2553302636
S287 395134.00710383314  2185995.910130264
S287  395167.0765038332  2186018.449830264
S287 395362.26440383313  2186151.487430264
S287  395400.6808038331 2186155.1645302637
S287 395400.89080383314 2186155.1846302636
S287 395377.01730383316 2186024.7679302637
S287  395376.4540038332 2186024.2721302635
S288   395487.970029311  2186362.901559966
S288  395698.3191982128  2186254.392894874
S288  395400.8907695604  2186155.184673593
S288  395400.6808320269 2186155.1645786604
S288  395406.9485000003 2186185.3841000013
S288 395416.71339999844 2186230.9092999995
S288  395417.2452728234  2186233.389874202
S288  395448.1180577561  2186377.375861695
S288   395487.970029311  2186362.901559966
S289  395400.6808572624 2186155.1645908062
S289 395362.26445726235 2186151.4873908064
S289  395311.1061572624 2186208.5359908063
S289 395309.20955726237 2186227.4051908064
S289  395297.6255572624  2186342.656390806
S289 395290.37845726236 2186414.7584908064
S289  395311.0398572624 2186414.4059908064
S289 395347.89445726236 2186413.7771908063
S289  395448.1180572624 2186377.3758908063
S289  395417.2452572624 2186233.3898908063
S289  395416.7133572624 2186230.9092908064
S289 395406.94845726236 2186185.3840908064
S289  395400.6808572624 2186155.1645908062
S290 395478.1748910117 2186521.1050077914
S290 395475.0109000014 2186502.8000000007
S290 395448.1180577561  2186377.375861695
S290 395347.8944551291  2186413.777239294
S290 395396.9491334201  2186559.285495234
S290 395474.3384614611 2186583.0680310507
S290 395478.1748910117 2186521.1050077914
S291  396101.8148456238 2186695.4067313983
S291  395842.6102456238 2186675.5930313985
S291  395807.3244456238 2186732.2939313985
S291  395928.8639456238 2186894.3996313983
S291 395945.66004562384 2186911.2220313987
S291  395986.7619456238 2187001.9240313983
S291  395994.3849456238 2186999.1287313984
S291  396036.8811456238 2186965.5193313984
S291  396038.8825456238 2186963.9365313984
S291 396049.75434562383 2186941.3047313984
S291  396065.2680456238 2186909.0097313984
S291  396095.3747456238 2186769.9378313986
S291  396101.8148456238 2186695.4067313983
S292  396927.6389622849  2186758.532842465
S292  396101.8148034445 2186695.4066931875
S292  396095.3747248044 2186769.9378176224
S292 396065.26802480436 2186909.0097176223
S292  396049.7543177921  2186941.304704592
S292 396569.11615460797  2187091.397490494
S292  396927.6389622849  2186758.532842465
S293 395237.3620016583  2186425.702292778
S293 395101.2163016583  2186377.428992778
S293 395040.9404016583  2186407.970392778
S293 395010.1332016583  2186557.612692778
S293 395153.3268016583 2186587.6642927784
S293 395217.5082016583  2186601.809492778
S293 395274.3708016583 2186614.3416927783
S293 395322.3018016583  2186612.963992778
S293 395239.9897016583 2186470.3808927783
S293 395237.3620016583  2186425.702292778
S294 395153.32681480556  2186587.664310279
S294 395010.13321480557 2186557.6127102785
S294 394992.76411480556 2186641.9807102787
S294 395010.56311480555  2186682.682110279
S294 395142.40531480557 2186696.9098102786
S294 395200.17451480555  2186703.144010279
S294 395217.50821480557 2186601.8095102785
S294 395153.32681480556  2186587.664310279
S295 395493.30184617697 2186608.6090419996
S295 395489.31834617694 2186585.5739419996
S295 395478.67014617694 2186587.4623419996
S295 395477.69494617695 2186587.6471419996
S295 395474.33844617696     2186583.068042
S295   395396.949146177 2186559.2855419996
S295 395389.95624617697     2186604.276942
S295 395348.02424617694 2186612.2246419997
S295  395358.6686461769 2186675.9596419996
S295 395374.54134617693 2186703.4546419997
S295 395393.82944617694 2186840.1008419995
S295 395489.74514617695 2186816.3834419996
S295 395521.91654617694 2186803.2220419995
S295   395493.183246177 2186608.7772419997
S295 395493.30184617697 2186608.6090419996
S296  395928.8639292766 2186894.3996293833
S296 395807.32442927663  2186732.293929383
S296  395762.2910292766 2186768.9922293834
S296  395753.5486292766 2186990.6696293834
S296  395816.1165292766  2186994.029129383
S296  395872.4015292766 2187004.5936293835
S296  395916.8780292766 2187014.1202293835
S296  395919.2617292766 2187014.0104293833
S296  395958.7613292766 2187012.1918293834
S296 395986.76192927663 2187001.9240293833
S296  395945.6600292766 2186911.2220293833
S296  395928.8639292766 2186894.3996293833
S297  395901.6315156471  2187233.624620307
S297 395919.26176136127  2187014.010453848
S297  395916.8780248043  2187014.120217623
S297  395872.4015248032  2187004.593617622
S297  395816.1165248034 2186994.0291176224
S297  395753.5486743247 2186990.6696038614
S297  395747.5308469036  2187143.261536201
S297   395748.545708203  2187195.932240917
S297 395751.71249591047 2187217.5242740484
S297  395823.6312955994  2187252.065133966
S297  395901.6315156471  2187233.624620307
S298  395396.9491791236 2186559.285446429
S298 395347.89447912364 2186413.777246429
S298  395311.0398791236 2186414.405946429
S298 395290.37847912364 2186414.758446429
S298 395237.36197912367 2186425.702246429
S298  395239.9896791236 2186470.380846429
S298 395322.30177912366 2186612.963946429
S298 395348.02417912363 2186612.224646429
S298 395389.95627912367 2186604.276946429
S298  395396.9491791236 2186559.285446429
S299  395200.1745479261 2186703.1440425054
S299 395142.40524792613 2186696.9098425056
S299 395130.22034792614 2186818.7923425054
S299 395117.58354792616 2186945.1952425055
S299  395324.3029479261 2186955.6656425055
S299 395370.43154792616 2186854.7550425055
S299 395352.18114792614 2186841.1322425054
S299  395200.1745479261 2186703.1440425054
S300  395130.2203816028 2186818.7923533875
S300 394985.21238217247 2186804.1975959446
S300  394974.4909103873 2186839.9630871005
S300  394995.1254482921 2186938.9927469115
S300 395117.58356988133 2186945.1952760015
S300  395130.2203816028 2186818.7923533875
S301  395512.4321561174 2186581.4712342196
S301 395749.84085611743 2186244.6895342194
S301  395698.3191561174 2186254.3929342194
S301  395487.9700561174 2186362.9015342197
S301  395448.1180561174 2186377.3758342196
S301  395475.0108561174   2186502.80003422
S301  395478.1748561174 2186521.1050342196
S301  395474.3384561174 2186583.0680342196
S301  395477.6949561174 2186587.6471342198
S301  395478.6700561174   2186587.46233422
S301  395489.3183561174   2186585.57393422
S301  395506.8889561174   2186582.45793422
S301  395512.4321561174 2186581.4712342196
S302  395815.7736035783 2186527.4779657386
S302  395763.8767784266 2186241.0524110068
S302 395749.84087414277  2186244.689515629
S302  395512.4321674383 2186581.4712435678
S302  395815.7736035783 2186527.4779657386
S303 395842.61028616055 2186675.5930408905
S303 395815.77358616056 2186527.4779408905
S303  395512.4321861605   2186581.47124089
S303  395506.8889861606 2186582.4579408905
S303 395489.31838616054 2186585.5739408904
S303 395493.30178616056 2186608.6090408904
S303  395493.1832861606 2186608.7772408905
S303 395521.91658616054 2186803.2220408903
S303 395526.83458616055 2186802.5216408903
S303  395762.2910861606 2186768.9922408904
S303 395807.32438616053 2186732.2939408906
S303 395842.61028616055 2186675.5930408905
S304  396079.8125387892 2187207.2643832304
S304  395986.7619248057   2187001.92403983
S304 395958.76132480416  2187012.191817623
S304 395919.26176136127  2187014.010453848
S304  395901.6315156471  2187233.624620307
S304  396079.8125387892 2187207.2643832304
S305 396569.11615460797  2187091.397490494
S305  396049.7543177921  2186941.304704592
S305  396038.8825248053  2186963.936517622
S305  396036.8811248044 2186965.5193176237
S305 395994.38492480444 2186999.1287176213
S305  395986.7619248057   2187001.92403983
S305  396079.8125387892 2187207.2643832304
S305 396432.09421012225  2187238.476847529
S305 396569.11615460797  2187091.397490494
S306  395747.5308698723 2187143.2614958016
S306  395588.5882698723 2187010.1610958017
S306  395581.9360698723 2187011.3815958016
S306  395580.6264698723  2187011.621795802
S306  395565.0100698723 2187016.2035958017
S306  395563.8599698723  2187016.540995802
S306  395569.8965698723  2187047.922195802
S306  395612.1484698723  2187267.567295802
S306 395751.71246987226 2187217.5242958018
S306  395748.5456698723 2187195.9321958018
S306  395747.5308698723 2187143.2614958016
S307  395598.5013086834 2187272.4606435816
S307   395612.148427095  2187267.567248047
S307  395569.8965553341 2187047.9221494934
S307 395329.76344125584 2187098.8637163546
S307  395326.8951290628 2187158.5943355444
S307 395364.23552558577  2187249.286584236
S307 395578.47287933755  2187275.216601287
S307  395598.5013086834 2187272.4606435816
S308 395328.00790840853  2187052.825547953
S308  395324.3029960856  2186955.665658524
S308 395117.58356988133 2186945.1952760015
S308  395107.3952099992  2187047.106803335
S308 395202.47030000016 2187055.4913000036
S308 395310.13830000005  2187054.014699999
S308 395328.00790840853  2187052.825547953
S309 395329.76344125584 2187098.8637163546
S309 395328.00790840853  2187052.825547953
S309 395310.13830000005  2187054.014699999
S309 395202.47030000016 2187055.4913000036
S309  395107.3952099992  2187047.106803335
S309  395099.9356390822  2187151.952760195
S309    395106.85155302  2187152.781019002
S309  395326.8951290628 2187158.5943355444
S309 395329.76344125584 2187098.8637163546
S310  395107.3952099992  2187047.106803335
S310 395117.58356988133 2186945.1952760015
S310  394995.1254482921 2186938.9927469115
S310  394987.6427908514 2186952.3725419356
S310 394956.37151156133  2187115.288318685
S310 394971.64880675223 2187136.5889540454
S310  395099.9356390822  2187151.952760195
S310  395107.3952099992  2187047.106803335
S311  395218.3742533153  2187543.540602974
S311 395186.28425331536  2187419.162402974
S311 395106.96035331534  2187421.373102974
S311  395090.2576533154  2187572.631502974
S311  395058.8888533154  2187856.704802974
S311  395153.9122533153  2187955.152702974
S311 395296.66765331535 2187978.8788029742
S311 395321.29605331534  2187942.458402974
S311  395218.3742533153  2187543.540602974
S312 395419.0380108432  2187503.350658447
S312 395556.6604108432 2187472.2247584467
S312 395559.1285108432  2187483.698258447
S312 395639.9503108432 2187469.5358584467
S312 395649.5264108432  2187467.151458447
S312 395598.5013108432  2187272.460658447
S312 395578.4729108432  2187275.216558447
S312 395364.2355108432  2187249.286558447
S312 395341.2412108432  2187292.706258447
S312 395419.0380108432  2187503.350658447
S313 395559.12850276206  2187483.698242171
S313 395556.66040276206  2187472.224742171
S313 395419.03800276207 2187503.3506421708
S313  395419.8769027621  2187508.099442171
S313  395473.8310027621  2187813.553242171
S313 395616.85520276206  2187752.050542171
S313 395559.12850276206  2187483.698242171
S314 396105.77681653557  2186493.015411748
S314  396070.6754248048  2186199.663117623
S314 396067.78837440116  2186172.398567575
S314  395773.7791426737 2186225.4841353255
S314  395763.8767784266 2186241.0524110068
S314  395815.7736035783 2186527.4779657386
S314 395927.12649999966 2186507.6577000017
S314 396045.69419999805 2186494.6624999996
S314 396105.77681653557  2186493.015411748
S315 396105.77681653557  2186493.015411748
S315 396045.69419999805 2186494.6624999996
S315 395927.12649999966 2186507.6577000017
S315  395815.7736035783 2186527.4779657386
S315 395842.61025457364 2186675.5930503467
S315  396101.8148034445 2186695.4066931875
S315 396103.80742480524 2186672.3458176227
S315 396109.15832480456  2186580.086417622
S315 396105.77681653557  2186493.015411748
S316 398353.74653688056 2185956.2013052898
S316 398353.74653688056 2185951.2013052898
S316 398358.74653688056 2185951.2013052898
S316 398363.74653688056 2185951.2013052898
S316 398368.74653688056 2185951.2013052898
S316 398373.74653688056 2185951.2013052898
S316 398377.66223688057 2185951.2013052898
S316 398378.74653688056 2185951.2013052898
S316 398378.74653688056   2185950.59760529
S316 398378.74653688056 2185946.2013052898
S316 398383.74653688056 2185946.2013052898
S316 398383.74653688056 2185941.2013052898
S316 398388.74653688056 2185941.2013052898
S316 398388.74653688056 2185936.2013052898
S316 398393.74653688056 2185936.2013052898
S316 398393.74653688056 2185931.2013052898
S316 398398.74653688056 2185931.2013052898
S316 398398.74653688056 2185926.2013052898
S316 398403.74653688056 2185926.2013052898
S316  398428.5115368806   2185916.22690529
S316 398452.90783688053   2185887.44270529
S316  398450.1759368805   2185868.95700529
S316 398453.74653688056 2185866.2013052898
S316 398453.74653688056 2185861.2013052898
S316 398458.74653688056 2185861.2013052898
S316 398458.74653688056 2185851.2013052898
S316 398458.74653688056 2185846.2013052898
S316 398458.74653688056   2185841.72670529
S316 398247.51373688056   2185778.83280529
S316 396067.78833688056   2186172.39860529
S316 396070.67543688056   2186199.66310529
S316 396105.77683688054   2186493.01540529
S316 396109.15833688056   2186580.08640529
S316 396103.80743688054 2186672.3458052897
S316 396101.81483688054   2186695.40670529
S316 396927.63893688057   2186758.53280529
S316 398353.74653688056   2185964.51690529
S316 398353.74653688056 2185961.2013052898
S316 398353.74653688056 2185956.2013052898
S317 395588.588325364  2187010.161093065
S317 395708.122625364  2186988.230493065
S317 395753.548625364  2186990.669593065
S317 395762.291025364  2186768.992293065
S317 395526.834625364 2186802.5216930653
S317 395521.916525364  2186803.221993065
S317 395489.745125364  2186816.383493065
S317 395557.495225364  2186979.825193065
S317 395560.224225364  2186986.408693065
S317 395565.010125364  2187016.203593065
S317 395580.626425364  2187011.621793065
S317 395581.936025364  2187011.381593065
S317 395588.588325364  2187010.161093065
S318 395753.5486743247 2186990.6696038614
S318 395708.1226248038  2186988.230517625
S318 395588.5883125669  2187010.161127824
S318 395747.5308469036  2187143.261536201
S318 395753.5486743247 2186990.6696038614
S319 396432.09421012225  2187238.476847529
S319  396079.8125387892 2187207.2643832304
S319  395901.6315156471  2187233.624620307
S319  395823.6312955994  2187252.065133966
S319 395871.10178195173 2187703.5122628976
S319  396268.3177852797 2187860.1226284807
S319 396432.09421012225  2187238.476847529
S320 396268.31781049946 2187860.1226225663
S320 395871.10181049944 2187703.5122225666
S320 395717.59821049945 2187726.8852225663
S320 395699.09131049947 2187732.7825225666
S320 395693.70871049946 2187734.4977225666
S320 395784.90061049943 2188158.4114225665
S320  395823.8869104994 2188339.6424225667
S320 396415.75601049943 2188230.4823225667
S320 396268.31781049946 2187860.1226225663
S321 398353.74654960784 2185964.5168953226
S321  396927.6389622849  2186758.532842465
S321 396569.11615460797  2187091.397490494
S321 396432.09421012225  2187238.476847529
S321  396268.3177852797 2187860.1226284807
S321  396415.7560248973  2188230.482361609
S321 397654.87507397856  2189182.936097651
S321  397753.8442496071 2188955.0321352426
S321 397788.48994960857 2188872.7325352426
S321   397796.215349608 2188796.9972352423
S321   397814.118249608  2188781.573035244
S321  397822.5032496086  2188771.840935243
S321 397820.44324960734 2188746.2013352434
S321  397821.7311496058  2188730.168635243
S321 397846.43264960794  2188708.887435242
S321 397852.80354960694 2188701.4924352416
S321 397861.06034960796  2188672.811435244
S321  397837.7931496075  2188662.429335242
S321   397831.432649608 2188649.4251352437
S321 397851.43264960794  2188623.887435242
S321 397857.14004960813 2188580.2650352432
S321  397871.4326496079 2188573.8874352425
S321  397881.0603496079 2188568.5151352426
S321  397903.1538496066  2188563.496235243
S321 397917.90544960677 2188546.3740352425
S321  397926.0603496077  2188517.502535243
S321 397914.52954960783  2188507.568535243
S321 397916.56694960734  2188482.213835243
S321  397947.5569496074 2188468.3851352427
S321   397953.746549607 2188461.2013352443
S321  397955.9700496082 2188443.4248352437
S321 397976.52294960915 2188418.9778352436
S321  397980.9700496081 2188398.4248352437
S321  397996.5229496091 2188378.9778352436
S321 398005.97004960803 2188353.4248352437
S321 398026.52294960676  2188308.977835244
S321  398030.9700496079  2188288.424835244
S321 398041.23424960894  2188270.963835243
S321 398047.94574960653 2188224.8506352436
S321  398058.7465496066  2188216.201335243
S321 398055.57754960837  2188207.766835244
S321  398060.2156496079 2188162.2596352426
S321  398036.4778496064  2188151.964835243
S321  398041.0151496082 2188118.4699352426
S321  398049.2091496083  2188104.163935244
S321  398060.8229496064 2188077.3841352426
S321 398120.38464960817 2188083.4553352427
S321  398131.4778496083 2188053.9326352435
S321  398133.7465496086 2188041.2013352416
S321 398135.02334960713 2188012.3640352422
S321  398150.0184496082 2187997.4732352435
S321  398158.7465496085  2187996.201335244
S321  398158.7465496085  2187991.201335244
S321 398146.06034960697  2187988.887435242
S321  398111.7793496079  2187974.450235242
S321  398084.0156496065  2187952.706435244
S321 398058.76544960844 2187959.6174352444
S321  398036.4326496073 2187928.5151352426
S321 398026.25624960684  2187919.748035244
S321 398021.43264960736 2187898.5151352426
S321 398003.48284960643  2187875.595835242
S321 398007.26394960773  2187828.539535243
S321  397996.0603496075  2187818.887435243
S321 397989.35504960874  2187767.636835243
S321 397976.06034960755  2187748.887435243
S321 397971.15124960645  2187732.580735244
S321 397934.43864960666 2187700.9510352435
S321  397938.7465496071  2187681.201335243
S321  397932.1058496077 2187677.8419352435
S321  397928.7465496071  2187671.201335243
S321 397913.74654960935  2187671.201335243
S321 397913.74654960714  2187666.201335243
S321 397913.74654960714  2187661.201335243
S321 397911.01514960866 2187658.9326352426
S321  397903.4108496052 2187633.0177352424
S321 397911.61024960707  2187618.701335242
S321  397902.3903496071  2187602.603235243
S321  397891.4778496069 2187573.4699352426
S321  397866.7414496064  2187543.807535242
S321   397861.477849607 2187508.4699352426
S321 397827.14734960714  2187469.547235243
S321  397821.4778496072  2187416.392335242
S321 397836.52114960906 2187403.8966352427
S321  397835.5415496084 2187394.2854352444
S321  397824.0498496076  2187363.701335243
S321  397831.4778496071 2187343.9326352435
S321 397836.01514960895 2187323.4699352435
S321 397841.47784960706  2187313.932635244
S321  397846.0151496067 2187301.3923352426
S321 397833.01894960774  2187278.701335243
S321 397841.47784960706  2187263.932635244
S321  397846.0151496089 2187253.4699352435
S321  397858.7465496073  2187251.201335242
S321  397858.7465496073  2187246.201335242
S321 397860.01844960696  2187217.473235244
S321  397867.4745496089  2187209.929335244
S321  397868.7465496073 2187196.2013352443
S321  397876.5681496086  2187149.022935244
S321 397878.74654960725 2187141.2013352425
S321 397875.27484960615  2187071.105435244
S321  397881.3417496067 2187053.7965352447
S321 397883.74654960725  2186976.201335243
S321 397861.52294960734  2186958.424835244
S321 397850.97004960635  2186953.977835244
S321  397848.7465496074 2186901.2013352434
S321 397846.70424960897  2186898.243535243
S321  397827.0564496083 2186884.6778352424
S321 397820.78874960484 2186859.1590352426
S321  397818.7465496075 2186856.2013352434
S321  397816.5229496075 2186833.4248352423
S321 397801.73534960655 2186799.1682352438
S321 397795.48904960824 2186777.2926352425
S321  397797.4904496092  2186761.201335244
S321 397795.31384960667  2186743.701335243
S321  397797.8010496083  2186723.701335243
S321 397795.39994960546  2186704.394635244
S321  397801.5229496076 2186693.9778352426
S321 397806.28924960666 2186650.5140352426
S321  397815.9700496087 2186638.4248352433
S321 397825.69474960765  2186630.637335243
S321 397827.80104960816 2186613.7013352434
S321 397825.13564960775  2186592.270635243
S321  397830.9700496086 2186578.4248352433
S321 397841.57484960824  2186573.955835243
S321 397874.85244960815 2186547.3072352433
S321  397885.9700496062 2186533.4248352437
S321 397894.29944960825 2186526.7542352434
S321  397900.9700496084 2186518.4248352437
S321 397911.52294960717 2186513.9778352436
S321  397921.0664496078  2186508.368035244
S321  397931.0200496075 2186509.6058352445
S321 397935.97004960827 2186503.4248352437
S321   397948.746549607 2186496.2013352425
S321   397953.746549607 2186486.2013352425
S321 397961.70424960635  2186474.159035244
S321  397965.7887496088 2186413.2435352425
S321  397976.7042496063  2186399.159035242
S321  397985.9999496066 2186382.8736352427
S321 398000.78874960646 2186373.2435352425
S321  398013.7465496068  2186371.201335243
S321 398015.53664960887  2186341.015735242
S321  398090.4261496074  2186267.881035243
S321 398107.06684960675 2186264.5216352437
S321 398113.74654960865 2186261.2013352434
S321 398113.74654960644 2186256.2013352434
S321  398133.7465496064 2186256.2013352434
S321  398133.7465496086 2186251.2013352434
S321  398143.7465496063 2186251.2013352434
S321  398143.7465496063 2186246.2013352434
S321 398148.74654960854 2186246.2013352434
S321 398148.74654960854 2186241.2013352434
S321  398153.7465496063 2186241.2013352434
S321 398153.74654960854 2186236.2013352434
S321 398198.74654960836 2186236.2013352434
S321 398198.74654960836 2186231.2013352434
S321  398208.7465496083 2186231.2013352434
S321  398208.7465496083 2186226.2013352434
S321  398213.7465496061 2186226.2013352434
S321  398213.7465496083 2186221.2013352434
S321  398218.7465496083 2186221.2013352434
S321 398220.42614960694  2186217.881035243
S321 398233.74654960824 2186211.2013352434
S321  398237.1058496066  2186204.560635244
S321   398243.746549606 2186201.2013352434
S321  398243.7465496082 2186196.2013352434
S321   398248.746549606 2186196.2013352434
S321  398248.7465496082 2186191.2013352434
S321  398258.7465496081 2186191.2013352434
S321  398258.7465496081 2186186.2013352434
S321  398263.7465496081 2186186.2013352416
S321  398263.7465496081 2186181.2013352434
S321  398268.7465496081 2186181.2013352434
S321  398268.7465496081 2186176.2013352434
S321 398273.74654960586 2186176.2013352434
S321 398277.10584960645  2186169.560635242
S321 398283.74654960807  2186166.201335244
S321 398283.74654960807  2186161.201335244
S321 398283.74654960807 2186156.2013352416
S321 398283.74654960807 2186151.2013352416
S321 398288.74654960807  2186151.201335244
S321   398293.746549608 2186151.2013352416
S321   398293.746549608  2186146.201335244
S321   398293.746549608 2186141.2013352416
S321   398293.746549608  2186136.201335244
S321   398293.746549608  2186131.201335244
S321   398293.746549608 2186126.2013352416
S321   398293.746549608  2186121.201335244
S321   398298.746549608  2186121.201335244
S321   398303.746549608  2186121.201335244
S321   398303.746549608 2186116.2013352416
S321   398303.746549608  2186111.201335244
S321   398303.746549608 2186106.2013352416
S321   398303.746549608  2186101.201335244
S321 398308.74654960795  2186101.201335244
S321 398313.74654960795  2186101.201335244
S321 398313.74654960795  2186096.201335244
S321 398313.74654960795  2186091.201335244
S321 398313.74654960795  2186086.201335244
S321 398313.74654960795  2186081.201335244
S321 398313.74654960795  2186076.201335244
S321 398313.74654960795  2186071.201335244
S321 398318.74654960574  2186071.201335244
S321 398318.74654960795  2186066.201335244
S321  398323.7465496057  2186066.201335244
S321 398323.74654960795  2186061.201335244
S321 398323.74654960795  2186056.201335244
S321  398323.7465496057  2186051.201335242
S321 398323.74654960795  2186046.201335242
S321  398323.7465496057  2186041.201335242
S321  398328.7465496079  2186041.201335242
S321  398333.7465496079  2186041.201335242
S321  398333.7465496101  2186036.201335242
S321  398333.7465496079 2186031.2013352443
S321  398333.7465496079  2186026.201335242
S321  398333.7465496079 2186021.2013352443
S321  398333.7465496079  2186016.201335242
S321  398333.7465496079  2186011.201335242
S321  398338.7465496079 2186011.2013352443
S321 398343.74654960784 2186011.2013352443
S321 398343.74654960784 2186006.2013352443
S321 398343.74654960784  2186001.201335242
S321 398343.74654960784  2185996.201335242
S321 398343.74654960784  2185991.201335242
S321 398343.74654961005  2185986.201335242
S321 398343.74654960784  2185981.201335242
S321 398348.74654960784  2185981.201335242
S321 398348.74654960784  2185976.201335242
S321 398353.74654960784  2185976.201335242
S321 398353.74654960784  2185971.201335242
S321 398353.74654960784  2185966.201335242
S321 398353.74654960784 2185964.5168953226
S323  395823.6313413566 2187252.0651575075
S323 395751.71254135657 2187217.5242575076
S323  395612.1484413566 2187267.5672575077
S323  395598.5013413566 2187272.4606575076
S323  395649.5264413566 2187467.1514575076
S323  395652.8355413566  2187479.777457508
S323  395717.5981413566 2187726.8852575077
S323  395871.1017413566 2187703.5122575075
S323  395823.6313413566 2187252.0651575075
S324  395652.8354482513  2187479.777416031
S324  395649.5264482513  2187467.151416031
S324 395639.95034825127  2187469.535816031
S324  395559.1285482513  2187483.698316031
S324  395616.8551482513 2187752.0505160308
S324 395693.70864825125  2187734.497716031
S324 395699.09134825127  2187732.782516031
S324  395717.5981482513 2187726.8852160308
S324  395652.8354482513  2187479.777416031
S325 395819.97490035254 2188340.6283780225
S325 395549.61910601193 2188408.7640133477
S325  395887.5046541848 2188704.8755633486
S325  395867.1275321556  2188594.908228474
S325 395819.97490035254 2188340.6283780225
S326  397439.5349629899  2189598.653074246
S326  397452.1949629899 2189588.8420742457
S326  397476.5446629899  2189593.591374246
S326 397654.87506298994 2189182.9360742457
S326 396415.75606298994 2188230.4823742458
S326  395823.8868629899 2188339.6424742457
S326  395819.9748629899  2188340.628374246
S326  395867.1275629899  2188594.908274246
S326 395887.50466298993  2188704.875574246
S326 395889.98656298994  2188718.269274246
S326 395901.91306298994  2188780.710874246
S326  395905.2876629899  2188788.658274246
S326  395907.9890629899 2188804.2869742457
S326 395915.07586298994  2188808.068674246
S326  395924.0934629899 2188808.8417742457
S326  395926.6412629899 2188814.2403742457
S326  395992.2956629899 2188849.2754742457
S326  396077.1586629899 2188890.8952742456
S326  396129.9947629899  2188917.385774246
S326 396250.01596298994 2188977.5610742457
S326 396500.62006298994  2189112.142574246
S326 396511.43236298993  2189108.887474246
S326  396526.0606629899  2189098.515174246
S326  396539.9049629899  2189093.887474246
S326  396563.1068629899 2189110.3382742456
S326  396588.0995629899 2189121.4906742456
S326 396626.52946298994  2189133.060474246
S326 396656.43236298993  2189138.515174246
S326  396665.1258629899  2189148.606174246
S326 396681.43236298993  2189153.515174246
S326  396688.6009629899 2189200.5586742456
S326 396709.88966298994  2189210.058174246
S326  396716.0606629899  2189223.887174246
S326  396719.9783629899 2189230.9092742456
S326 396721.43236298993  2189233.515474246
S326  396723.7465629899  2189251.201374246
S326 396750.60146298993  2189248.658074246
S326  396765.5800629899 2189247.2395742456
S326 396766.87866298994  2189258.092174246
S326  396793.4355629899  2189273.484274246
S326  396960.0249629899  2189377.542574246
S326  397072.2018629899  2189447.606674246
S326 397147.07236298994  2189483.930674246
S326  397330.2698629899  2189557.503874246
S326  397439.5349629899  2189598.653074246
S327  394898.7465075048  2188246.201311626
S327  394880.5421491563 2188238.0611724723
S327 394858.65197292744  2188314.202910083
S327  394872.5917908002  2188398.811863444
S327 394903.43985000043  2188405.356999999
S327   394993.181099998  2188425.707100001
S327  395036.0085999994 2188438.6623999984
S327  395050.5871382458  2188443.337322849
S327 395026.34171672724  2188423.606106724
S327 395009.77982190246 2188418.3625415885
S327 394989.94063572225 2188407.8645181525
S327  394981.3417167274  2188375.942519617
S327  395020.6581198503 2188366.5773024266
S327 395026.15130188374  2188344.236603306
S327 394947.23191560525 2188258.7123073107
S327 394905.73809788027  2188253.747102331
S327  394898.7465075048  2188246.201311626
S328 395296.66768823075 2187978.8787565264
S328  395153.9121882308 2187955.1526565263
S328  395103.3311882308 2187982.5402565263
S328 394919.47508823074 2188122.3321565264
S328  394912.2295882308  2188127.841056526
S328  394880.5421882308  2188238.061156526
S328 394898.74648823077  2188246.201356526
S328  394905.7380882308  2188253.747056526
S328  394947.2318882308 2188258.7123565264
S328  395026.1512882308 2188344.2365565263
S328 395020.65808823076 2188366.5772565263
S328 394981.34168823075  2188375.942556526
S328 394989.94058823073 2188407.8645565263
S328  395009.7797882308 2188418.3625565264
S328 395026.34168823075  2188423.606156526
S328 395050.58718823077 2188443.3373565264
S328  395171.2773882308  2188482.039256526
S328 395369.00628823077  2188547.867756526
S328 395405.16918823076 2188559.8165565263
S328 395472.38458823075  2188423.674756526
S328 395296.66768823075 2187978.8787565264
S329  394713.7465039062 2181321.2013065885
S329 394711.24802978535 2181286.6358769042
S329  394686.0160961908  2181272.924939401
S329 394596.10581787146  2181278.560925732
S329 394570.29817016685 2181298.5609257324
S329  394531.1058178703  2181293.841687448
S329 394509.63166625984 2181278.8416874497
S329  394492.6439038084 2181297.3280155743
S329  394481.1058178698  2181318.560925732
S329  394474.5730725097 2181353.5609257333
S329 394456.10581787064  2181348.841687449
S329  394434.2102185071 2181331.8739140085
S329  394413.5162487786 2181343.1190311983
S329  394393.0787792971  2181344.337292918
S329 394377.07917602634  2181336.993542917
S329  394371.3871899409  2181318.560925732
S329 394351.10581787094  2181293.841687447
S329 394342.08268554695  2181274.182263625
S329 394333.36640747014 2181266.3941776836
S329  394315.1106396496  2181240.258923778
S329  394316.6851940917 2181213.8416874474
S329  394271.1058178714  2181218.560925732
S329  394252.7035656746 2181228.5609257324
S329 394236.10581787035 2181218.8416874497
S329 394223.63709838764 2181191.6749394056
S329 394216.38718994154 2181183.5609257296
S329  394206.5478649902 2181174.7694218224
S329 394197.87095459027  2181109.513074169
S329  394211.1058178694 2181085.1588261193
S329 394203.95799072343   2181052.44276167
S329  394157.8561535644  2181038.206921824
S329   394156.767746468 2181019.9457626874
S329  394152.6021999997  2181039.549100003
S329  394156.4967999988 2181126.7496000044
S329 394172.41760000016  2181155.729500004
S329  394197.4105999989  2181197.509900002
S329 394202.68059999996  2181232.144400005
S329  394211.9189999967       2181272.9112
S329  394224.4008999999       2181289.6109
S329  394248.6480999987       2181301.2029
S329  394418.8835000004 2181363.3792000017
S329  394649.3712872242  2181444.086566401
S329 394656.80222900456   2181437.98963667
S329  394688.2649365226  2181439.864636667
S329 394709.32847412175 2181430.1966679194
S329 394716.56297119166  2181403.184949169
S329 394702.51206787076 2181390.6312382305
S329 394691.68656738347  2181370.709363232
S329  394711.3871899428 2181338.8416874493
S329  394713.7465039062 2181321.2013065885
S331 394458.74652980483 2189331.2012865893
S331 394458.74652980466 2189326.2012865893
S331  394463.7465298048 2189326.2012865893
S331   394463.746529805 2189321.2012865893
S331 394468.74652980437 2189321.2012865893
S331  394473.7465298044  2189321.201286589
S331 394478.74652980384 2189321.2012865893
S331 394483.74652980396  2189321.201286589
S331   394483.746529804 2189316.2012865893
S331 394488.74652980466 2189316.2012865893
S331   394496.060529804 2189283.5154865896
S331 394501.43252980435 2189268.8871865897
S331 394506.06052980456 2189243.5154865896
S331   394515.233929805   2189218.53528659
S331  394526.4325298039 2189208.8871865897
S331  394552.5332298046  2189167.215686589
S331 394550.31202980445 2189139.5710865892
S331  394561.4325298043 2189123.8874865896
S331 394581.40732980473 2189089.2414865894
S331  394586.0605298051 2189023.5151865887
S331  394593.8304298045 2189002.3572865897
S331  394574.6103298046 2188971.5638865894
S331  394576.9578298048 2188942.3487865897
S331 394622.23802980484 2188913.9875865895
S331   394663.533529805   2188908.88748659
S331 394671.66032980423   2188935.87908659
S331  394695.5229298043  2188943.515186589
S331 394734.22132980597  2188913.208186589
S331  394764.2723298049  2188874.363586589
S331  394787.5438298044 2188854.3140865895
S331   394811.432329805   2188848.88748659
S331  394831.0606298044 2188843.5151865887
S331  394851.4323298048   2188838.88748659
S331 394861.06062980474 2188833.5151865897
S331  395016.4323298047 2188828.8874865896
S331  395046.0606298051  2188823.515186589
S331 395101.43232980435 2188818.8874865896
S331  395149.0794298042  2188775.784386589
S331  395153.7465298064 2188781.2012865897
S331  395170.6587298049   2188777.89988659
S331  395206.2965298046   2188733.75138659
S331  395211.3746298042  2188723.283786589
S331  395235.9010298042 2188699.7193865897
S331 395213.18802980473 2188669.7864865884
S331  395233.7465298043 2188641.2012865893
S331 395210.38862980506 2188619.5588865895
S331  395182.1629298042   2188589.09558659
S331   395175.443929804   2188553.90268659
S331  395130.3001298028 2188502.8339865897
S331  395108.2994298044  2188492.450686589
S331  395091.3417298045  2188463.606086589
S331 395081.15132980456 2188458.7964865896
S331   395071.341729804 2188453.6060865894
S331  395051.9719298045 2188444.4642865895
S331  395050.5871298044 2188443.3372865897
S331  395036.0086298045  2188438.662386589
S331 394993.18112980435 2188425.7070865897
S331  394903.4398298049 2188405.3569865893
S331 394829.67802980385   2188389.70668659
S331  394777.5332298039 2188378.5897865896
S331 394758.05252980604 2188372.0399865895
S331  394741.3814298042 2188369.1384865893
S331 394734.00582980475 2188367.8535865895
S331 394696.04712980497 2188361.2364865895
S331  394651.1746298041 2188351.6820865893
S331 394598.41242980387   2188339.00818659
S331 394537.24092980626 2188327.4805865893
S331  394451.2674298041 2188316.9863865892
S331 394317.46632980497  2188304.142386589
S331  394207.4113298049 2188304.8314865893
S331  394129.7668298041 2188297.3671865896
S331 394122.72262980475   2188297.18778659
S331 394094.77422980464 2188294.8818865893
S331   394087.825929805 2188301.3196865893
S331 394068.75152980513 2188308.6060865894
S331  394026.6190298045 2188281.9452865887
S331  393998.1399298046  2188263.924086589
S331  393973.7465298051 2188256.2012865897
S331   393963.157329805 2188266.0126865893
S331  393961.7472298039  2188274.864786589
S331  393956.2732298048 2188309.2273865896
S331 393946.15112980484  2188318.606086589
S331 393941.34182980505  2188343.796486589
S331  393934.9167298038  2188349.749886589
S331 393910.26292980474 2188361.3849865897
S331  393911.5375298039  2188393.541386589
S331 393890.25912980305 2188421.2897865893
S331 393891.34902980446   2188448.78798659
S331 393871.15112980455  2188473.606086589
S331  393866.1018298038   2188531.55038659
S331  393848.8415298042 2188539.6961865895
S331  393802.0056298048 2188537.8394865897
S331 393746.58512980415  2188587.547786589
S331 393721.15112980455 2188593.6060865894
S331  393711.3418298047   2188598.79648659
S331 393689.68922980386 2188603.6060865894
S331 393653.94852980506   2188584.69378659
S331 393585.60732980387 2188578.7964865887
S331   393578.746529805 2188586.2012865893
S331 393636.38722980436  2188588.560886589
S331  393656.1058298049   2188603.84168659
S331 393666.38722980616  2188608.560886589
S331  393685.6178298043 2188621.9935865896
S331  393691.1755298041  2188669.436786589
S331  393735.2052298045 2188708.7769865897
S331  393801.3872298048  2188713.560886589
S331  393806.1058298047  2188728.841686589
S331 393811.38722980383   2188733.56088659
S331   393816.105829805 2188783.8416865887
S331 393869.02772980346 2188843.4198865895
S331  393876.1058298041 2188873.8416865896
S331 393891.38722980436 2188898.5608865893
S331 393896.10582980514 2188978.8416865896
S331 393901.38722980465 2188988.5608865893
S331  393903.7465298048  2188996.201286589
S331 393908.74652980384  2188996.201286589
S331 393908.74652980396 2189001.2012865893
S331  393913.7465298051 2189001.2012865893
S331   393913.746529805  2189036.201286589
S331  393941.0454298048 2189059.7205865895
S331 393943.74652980524 2189086.2012865893
S331 393943.74652980466 2189096.2012865893
S331 393948.74652980384 2189096.2012865893
S331  393948.7465298042  2189101.201286589
S331  393953.7465298041  2189101.201286589
S331 393953.74652980454 2189106.2012865897
S331  393958.7465298038 2189106.2012865893
S331 393958.74652980425 2189111.2012865893
S331  393963.7465298042 2189111.2012865893
S331  393963.7465298047 2189116.2012865893
S331  393968.7465298041 2189116.2012865893
S331  393968.7465298046  2189121.201286589
S331  393973.7465298046  2189121.201286589
S331  393973.7465298039 2189126.2012865893
S331  393978.7465298046 2189126.2012865897
S331  393978.7465298039 2189131.2012865893
S331 393983.74652980396 2189131.2012865893
S331 393983.74652980466 2189136.2012865893
S331  394018.6636298044   2189166.28428659
S331  394048.7465298051 2189201.2012865893
S331 394053.74652980414 2189201.2012865893
S331  394053.7465298044 2189206.2012865893
S331  394058.7465298041  2189206.201286589
S331 394058.74652980425 2189211.2012865893
S331 394063.74652980466 2189211.2012865893
S331   394068.746529804 2189211.2012865893
S331 394073.74652980384 2189211.2012865893
S331  394078.7465298041 2189211.2012865893
S331 394083.74652980466 2189211.2012865893
S331  394083.7465298046  2189216.201286589
S331 394083.74652980414 2189221.2012865893
S331 394088.74652980437 2189221.2012865897
S331 394093.74652980507  2189221.201286589
S331 394098.74652980483 2189221.2012865893
S331   394103.746529805 2189221.2012865893
S331  394108.7465298043 2189221.2012865893
S331  394113.7465298026 2189221.2012865897
S331  394113.7465298048 2189226.2012865893
S331 394113.74652980384 2189231.2012865893
S331 394118.74652980454 2189231.2012865893
S331  394123.7465298043 2189231.2012865897
S331 394128.74652980454  2189231.201286589
S331  394133.7465298039 2189231.2012865893
S331   394138.746529805 2189231.2012865893
S331  394143.7465298039 2189231.2012865897
S331  394143.7465298042 2189236.2012865893
S331   394143.746529804 2189241.2012865893
S331 394148.74652980396 2189241.2012865893
S331  394153.7465298056 2189241.2012865897
S331  394158.7465298051 2189241.2012865897
S331   394163.746529805 2189241.2012865893
S331 394168.74652980414 2189241.2012865893
S331   394173.746529805  2189241.201286589
S331 394173.74652980466  2189246.201286589
S331  394173.7465298025 2189251.2012865897
S331 394178.74652980437 2189251.2012865893
S331  394183.7465298055 2189251.2012865897
S331  394188.7465298043 2189251.2012865893
S331  394188.7465298051 2189256.2012865893
S331  394193.7465298047 2189256.2012865893
S331   394193.746529805 2189251.2012865893
S331 394198.74652980483 2189251.2012865897
S331 394208.74652980466 2189251.2012865897
S331 394208.74652980495 2189246.2012865893
S331 394213.74652980466  2189246.201286589
S331 394213.74652980425  2189241.201286589
S331  394218.7465298042 2189241.2012865893
S331  394243.7465298052 2189241.2012865893
S331 394243.74652980454 2189246.2012865893
S331 394263.22362980514   2189254.04618659
S331  394268.7465298043 2189261.2012865893
S331 394276.70422980405 2189263.2435865896
S331 394294.22512980504   2189274.65288659
S331 394298.74652980507  2189281.201286589
S331  394303.7465298043  2189281.201286589
S331  394303.7465298049 2189286.2012865893
S331 394308.74652980495 2189286.2012865893
S331 394308.74652980256  2189291.201286589
S331  394313.7465298047 2189291.2012865893
S331  394313.7465298046 2189296.2012865893
S331  394318.7465298049 2189296.2012865893
S331  394318.7465298045 2189301.2012865893
S331 394323.74652980425  2189301.201286589
S331  394328.7465298046  2189301.201286589
S331  394333.7465298029  2189301.201286589
S331  394338.7465298045 2189301.2012865893
S331  394343.7465298026 2189301.2012865893
S331   394343.746529804 2189306.2012865893
S331 394353.74652980396 2189306.2012865893
S331  394353.7465298025  2189311.201286589
S331 394358.74652980425 2189311.2012865893
S331 394363.74652980396 2189311.2012865893
S331  394368.7465298043 2189311.2012865893
S331  394373.7465298039 2189311.2012865893
S331   394373.746529804 2189316.2012865897
S331  394378.7465298045 2189316.2012865893
S331  394378.7465298042 2189321.2012865893
S331 394383.74652980414 2189321.2012865893
S331  394388.7465298047  2189321.201286589
S331 394393.74652980466 2189321.2012865893
S331 394398.74652980384 2189321.2012865893
S331   394418.746529806 2189321.2012865893
S331 394418.74652980396  2189326.201286589
S331   394423.746529804 2189326.2012865897
S331  394423.7465298042 2189331.2012865893
S331  394428.7465298051  2189331.201286589
S331   394433.746529804 2189331.2012865893
S331 394438.74652980495  2189331.201286589
S331  394443.7465298039 2189331.2012865893
S331 394453.74652980384 2189331.2012865893
S331 394458.74652980483 2189331.2012865893
S333   395843.407428202  2188815.349210814
S333  395865.2400282033 2188803.7965108138
S333 395875.02552820416 2188804.6354108136
S333 395895.04132820305  2188806.351210814
S333 395893.62452820386  2188797.872010814
S333 395880.24932820327  2188790.344210814
S333 395830.77462820406 2188767.7714108136
S333 395772.68802820414 2188726.1061108145
S333 395674.09002820414  2188666.000910814
S333 395632.12102820416  2188643.794110814
S333   395585.379228203 2188622.7005108134
S333  395526.0708282035 2188599.7656108136
S333 395468.23112820386  2188580.653210814
S333 395369.00632820337 2188547.8677108134
S333   395171.277428203  2188482.039210814
S333 395050.58712820365  2188443.337310814
S333  395051.9719282055 2188444.4642108143
S333 395071.34172820323 2188453.6061108136
S333 395081.15132820373 2188458.7965108147
S333  395091.3417282037 2188463.6061108145
S333 395108.29942820355  2188492.450710814
S333 395130.30012820195 2188502.8340108143
S333 395175.44392820314  2188553.902710814
S333 395182.16292820324  2188589.095610814
S333 395210.38862820406  2188619.558810814
S333 395233.74652820337 2188641.2013108134
S333 395243.74652820325  2188637.696010814
S333  395263.9799282042 2188644.7883108146
S333  395308.2045282039  2188608.796510814
S333  395328.5502282034  2188619.800510814
S333  395396.8150282042  2188693.476710814
S333 395466.34172820416 2188698.6061108136
S333 395518.30922820384 2188743.6781108147
S333 395636.34172820405  2188748.606110814
S333  395651.1513282017 2188758.7965108147
S333   395698.514828204  2188764.464210814
S333  395716.1513282018  2188773.796510814
S333  395741.3417282036  2188778.606110814
S333 395756.15132820344  2188783.796510814
S333 395797.05372820416 2188788.6909108134
S333   395816.151328204  2188798.796510814
S333  395826.3417282038 2188803.6061108136
S333   395843.407428202  2188815.349210814
S334  396415.9913756084  2189114.577787055
S334  396443.1373756083 2189108.8874870557
S334  396461.0606756086 2189118.8874870553
S334  396478.1373756088 2189123.5151870553
S334 396496.06067560904 2189113.5151870553
S334 396500.62007560814  2189112.142487055
S334  396250.0158756092 2188977.5609870553
S334  396077.1585756086  2188890.895187055
S334  395992.2955756092 2188849.2753870552
S334 395926.64127561025 2188814.2402870553
S334  395933.5557756086  2188828.891687055
S334  395941.3416756091 2188843.6060870555
S334  395942.9310756082  2188846.973587055
S334 395946.15127560816 2188853.7964870553
S334  395966.1512756088 2188886.4606870553
S334  395961.3416756081  2188918.796487055
S334  395955.9516756089 2188928.9832870555
S334  395980.6330756086 2188940.6312870556
S334 395987.50017560855  2188969.459987055
S334   396000.005675609  2188982.956687055
S334  396046.2769756079 2188989.2804870545
S334  396066.1173756089  2189007.663687055
S334  396071.1512756084  2189028.796487055
S334 396076.34167560906 2189043.6060870546
S334  396082.1916756102  2189086.410087055
S334 396096.15127560863  2189093.796487055
S334  396125.2830756093 2189099.3586870553
S334  396120.9608756089  2189208.404387055
S334 396140.43927560875 2189218.7113870545
S334  396181.3416756084  2189223.606087055
S334 396193.74647560896  2189231.201287055
S334 396198.37447560916 2189215.8292870545
S334 396236.43237560923  2189208.887187056
S334  396251.6404756089 2189200.4020870556
S334 396302.78887560987 2189193.7098870547
S334 396321.06067560805 2189183.5154870553
S334   396350.108775609 2189176.9159870553
S334 396381.39757560904  2189154.730987055
S334  396415.9913756084  2189114.577787055
S335  397788.4899412413  2188872.732577593
S335 397753.84419999877 2188955.0320999986
S335  397476.5446103057  2189593.591380385
S335 397481.99601562513  2189594.654675734
S335 397527.45072753826 2189613.5606205557
S335  397546.3868847653  2189593.841992627
S335  397554.0644970696  2189568.980237254
S335   397561.246503906  2189568.552380807
S335  397633.9460888653  2189572.885266549
S335  397659.7895947274  2189558.841992625
S335 397676.38688476593 2189563.5606205557
S335  397691.1061230479  2189573.841992627
S335  397729.9018994132  2189579.030896438
S335  397763.0262890627  2189602.168408642
S335 397810.01359374943  2189604.969006786
S335 397836.19157226523 2189583.4904301255
S335 397857.29813964665 2189591.0639774883
S335 397871.10612304707 2189583.5606205566
S335  397907.1046582017  2189577.950879342
S335 398021.10612304683  2189468.560620554
S335 398041.01395996124 2189459.4233524892
S335  398046.3868847664  2189408.841992623
S335 398048.74650390365  2189406.201306589
S335  398016.4326611324 2189378.5154545372
S335 397986.43510253966  2189359.726697215
S335 397981.43266113236 2189348.5154545377
S335  397946.0603466774  2189343.887158643
S335  397856.1799755855  2189258.274670849
S335 397851.43266113265  2189083.515149364
S335 397828.61649902636  2189055.932751904
S335 397813.87650878984 2188986.4698612806
S335  397785.1039257817  2188951.686536086
S335  397775.3498974601 2188908.7507450664
S335 397786.93375976634 2188887.9884159653
S335  397788.4899412413  2188872.732577593
S336 397439.53495067643  2189598.653040773
S336 397330.26979999925 2189557.5038000015
S336  397147.0722999994  2189483.930600003
S336 397072.20180000016  2189447.606600002
S336  396960.0249000001 2189377.5425000023
S336  396793.4355000006 2189273.4842000008
S336  396766.8786640611 2189258.0921568815
S336 396771.72929199255 2189298.6277592275
S336  396781.1512890643 2189308.7965214383
S336  396806.0832348643 2189327.0838749497
S336  396806.5382519538 2189338.5639774897
S336  396776.3417187497 2189374.2973148897
S336 396781.15128906356 2189378.7965214346
S336 396797.50871093886  2189389.359570751
S336   396795.390180663  2189442.804394968
S336  396811.3417187496  2189463.606091745
S336 396817.08939941495  2189493.710156688
S336  396841.0557690426  2189506.392041456
S336  396876.1329785163 2189522.9463017085
S336  396881.1512890627  2189538.796521432
S336 396886.34873779386 2189548.6192143047
S336   396885.996259765 2189557.5144779775
S336 396891.15128906386  2189573.796521435
S336 396931.14121826354  2189624.717236769
S336  396911.9893017575 2189642.4622929194
S336  396910.7548657225  2189673.606091745
S336 396939.97514160356 2189668.1138432096
S336 396943.74650390743 2189656.2013065894
S336 396957.14066894504 2189624.0949833463
S336  397006.9114819336  2189621.128674753
S336 397029.78959472827 2189633.5606205543
S336  397066.3871899414  2189628.841992624
S336  397101.1058178734  2189603.560620556
S336  397208.8795605472  2189598.730298292
S336   397292.659467773 2189583.8419926297
S336 397322.01127441507 2189588.6631596177
S336 397339.13712890673  2189607.830640085
S336  397421.3679638679  2189612.731763134
S336 397439.53495067643  2189598.653040773
S350  395437.2179861595  2182452.451840868
S350  395428.5035999997 2182382.1257000025
S350 395424.07814259897 2182330.6847130563
S350 395599.11762588396 2182309.5266861413
S350  395869.1200321382 2182276.8899457264
S350 395866.38718994113 2182253.5609257296
S350 395855.20310791157 2182248.4278690927
S350  395841.6682568365  2182233.278943307
S350  395823.9183178723   2182217.41956831
S350 395806.49400146503  2182185.355359324
S350  395802.5731030277  2182119.571667919
S350  395831.1058178724  2182082.752820261
S350  395822.0552197258 2182065.1222050264
S350 395769.34556396597 2182050.6019413546
S350 395756.19767578185 2182043.4583866685
S350   395748.335432129  2182052.257214792
S350  395673.0796948258 2182031.2403690945
S350  395626.1058178709 2182038.5609257338
S350 395611.38718994264  2182043.841687454
S350  395582.7766552733  2182050.498181593
S350  395562.6735058596  2182072.998181589
S350  395540.1945629885  2182081.063367138
S350  395517.7034130868 2182068.8416874483
S350 395466.10581787146 2182073.5609257296
S350  395431.7268505861  2182082.768689403
S350 395410.88609130937 2182068.2105839346
S350 395401.38718994166 2182078.8416874483
S350  395336.0176220707 2182084.4215214327
S350 395316.10581787117 2182093.5609257296
S350 395282.17057617236  2182117.264539016
S350  395267.2843097461 2182120.4452065565
S350  395266.7781999987  2182133.605300002
S350 395214.48210000177 2182462.9997000024
S350 395211.19043606904  2182483.964796262
S350  395212.5465978208 2182483.9647962614
S350  395214.5161575342 2182483.9647962614
S350 395216.48571724305 2182483.9647962614
S350  395216.4857172429 2182482.9800164066
S350 395216.48571724317 2182481.9952365477
S350 395218.45527695457 2182481.9952365477
S350  395220.4248366667 2182481.9952365477
S350  395222.3943963795  2182481.995236548
S350 395224.36395609035 2182481.9952365477
S350  395226.3335158046  2182481.995236548
S350 395228.30307551567 2182481.9952365477
S350 395230.27263522736 2182481.9952365477
S350  395230.2726352266  2182481.010456698
S350 395230.27263522625 2182480.0256768353
S350 395232.24219494057  2182480.025676835
S350  395234.2117546502 2182480.0256768353
S350  395236.1813143633  2182480.025676835
S350  395238.1508740745 2182480.0256768353
S350   395240.120433785 2182480.0256768353
S350   395242.089993499  2182480.025676835
S350   395244.059553211  2182480.025676835
S350    395244.05955321 2182478.0561171267
S350  395245.7829179579 2182478.0561171267
S350 395247.50628270686 2182478.0561171267
S350  395249.2296474569  2182478.056117127
S350  395250.9530122025  2182478.056117127
S350 395252.67637695186 2182478.0561171267
S350  395254.3997417009 2182478.0561171267
S350 395256.12310644693 2182478.0561171267
S350 395257.84647119534  2182478.056117127
S350  395257.8464711959  2182477.071337271
S350  395257.8464711957 2182476.0865574125
S350 395259.81603090925 2182476.0865574125
S350 395261.78559061815  2182476.086557412
S350 395263.75515033316  2182476.086557412
S350  395265.7247100462 2182476.0865574125
S350   395267.694269756  2182476.086557412
S350  395269.6638294665 2182476.0865574125
S350 395271.63338917773 2182476.0865574125
S350 395271.63338917826  2182474.116997704
S350 395273.60294889205  2182474.116997704
S350 395275.57250860264  2182474.116997704
S350  395277.5420683139  2182474.116997704
S350  395279.5116280259 2182474.1169977034
S350  395281.4811877387  2182474.116997704
S350  395283.4507474508  2182474.116997704
S350 395285.42030716245  2182474.116997704
S350 395285.42030716175  2182473.132217848
S350  395285.4203071616   2182472.14743799
S350  395287.3898668757 2182472.1474379897
S350 395289.35942658526 2182472.1474379897
S350  395291.3289862982 2182472.1474379906
S350 395293.29854600923 2182472.1474379892
S350  395295.2681057196 2182472.1474379897
S350  395297.2376654361   2182472.14743799
S350 395299.20722514397   2182472.14743799
S350   395299.207225144 2182471.1626581363
S350 395299.20722514455 2182470.1778782774
S350 395300.89541918377  2182470.177878277
S350 395302.58361322316 2182470.1778782774
S350  395304.2718072612  2182470.177878277
S350 395305.96000130073 2182470.1778782774
S350 395307.64819533896  2182470.177878277
S350  395309.3363893786  2182470.177878278
S350   395311.024583417  2182470.177878277
S350 395311.02458341717  2182468.208318567
S350 395312.99414312857 2182468.2083185664
S350   395314.963702842  2182468.208318567
S350  395316.9332625522  2182468.208318567
S350  395318.9028222644 2182468.2083185664
S350  395320.8723819761 2182468.2083185664
S350  395322.8419416885 2182468.2083185664
S350  395324.8115014003  2182468.208318567
S350  395324.8115014009 2182467.2235387135
S350 395324.81150140055 2182466.2387588546
S350  395326.7810611123 2182466.2387588546
S350 395328.75062082335 2182466.2387588546
S350  395330.7201805366 2182466.2387588546
S350 395332.68974024785  2182466.238758855
S350 395334.65929996123  2182466.238758854
S350 395336.62885967264 2182466.2387588546
S350 395338.59841938346 2182466.2387588546
S350  395338.5984193834     2182465.253979
S350 395338.59841938235   2182464.26919914
S350  395340.3491391281 2182464.2691991404
S350  395342.0998588719 2182464.2691991404
S350 395343.85057861503  2182464.269199141
S350 395345.60129835893  2182464.269199141
S350 395347.35201810487  2182464.269199141
S350  395349.1027378489 2182464.2691991404
S350  395350.8534575895 2182464.2691991404
S350  395352.6041773363 2182464.2691991404
S350 395354.35489707976 2182464.2691991404
S350 395354.35489707993 2182463.2844192856
S350 395354.35489707923  2182462.299639426
S350 395356.12750082125  2182462.299639426
S350  395357.9001045611  2182462.299639426
S350 395359.67270830274  2182462.299639426
S350  395361.4453120448  2182462.299639426
S350 395363.21791578474 2182462.2996394266
S350 395364.99051952513 2182462.2996394266
S350 395366.76312326465 2182462.2996394266
S350  395368.5357270073  2182462.299639426
S350  395370.3083307491 2182462.2996394266
S350 395372.08093448734 2182462.2996394257
S350  395372.0809344879 2182460.3300797176
S350  395374.0504942016 2182460.3300797176
S350 395376.02005391207  2182460.330079717
S350 395377.98961362464 2182460.3300797176
S350  395379.9591733352 2182460.3300797176
S350 395381.92873304663 2182460.3300797176
S350  395383.8982927601 2182460.3300797176
S350 395385.86785247165 2182460.3300797176
S350 395387.83741218527 2182460.3300797176
S350 395387.83741218154 2182459.3452998647
S350  395387.8374121823  2182458.360520005
S350 395389.58813192515  2182458.360520005
S350  395391.3388516701 2182458.3605200048
S350  395393.0895714144  2182458.360520005
S350  395394.8402911581  2182458.360520005
S350  395396.5910109012  2182458.360520005
S350  395398.3417306477  2182458.360520005
S350 395400.09245039354 2182458.3605200048
S350  395401.8431701348  2182458.360520005
S350 395403.59388987813  2182458.360520005
S350  395403.5938898784 2182456.3909602948
S350 395405.56344959047 2182456.3909602943
S350  395407.5330093019 2182456.3909602948
S350 395409.50256901537 2182456.3909602948
S350 395411.47212872567 2182456.3909602948
S350   395413.441688438 2182456.3909602943
S350  395415.4112481484 2182456.3909602948
S350  395417.3808078636 2182456.3909602948
S350 395419.35036757425 2182456.3909602948
S350 395419.35036757373 2182455.4061804414
S350 395419.35036757373  2182454.421400586
S350 395421.10108731687  2182454.421400586
S350 395422.85180706077  2182454.421400586
S350  395424.6025268067  2182454.421400586
S350  395426.3532465507  2182454.421400586
S350  395428.1039662941 2182454.4214005857
S350  395429.8546860382 2182454.4214005857
S350  395431.6054057817 2182454.4214005866
S350   395433.356125526  2182454.421400586
S350 395435.10684527096  2182454.421400586
S350  395435.1068452707  2182453.436620727
S350  395435.1068452709 2182452.4518408678
S350 395437.07640498265  2182452.451840868
S350  395437.2179861595  2182452.451840868
S351  395153.0082467098 2182871.9680595137
S351  395152.8032865571  2182871.968059514
S351  395150.9650308256 2182871.9680595137
S351  395149.1267750937 2182871.9680595137
S351  395147.2885193642 2182871.9680595137
S351  395145.4502636317 2182871.9680595137
S351 395143.61200790026 2182871.9680595137
S351 395143.61200790096 2182870.9832796585
S351  395143.6120079008 2182869.9984997995
S351 395141.64244818996  2182869.998499799
S351  395139.6728884785 2182869.9984997995
S351 395137.70332876506 2182869.9984997995
S351  395135.7337690524 2182869.9984997995
S351 395135.73376905144 2182868.0289400904
S351 395133.76420934155  2182868.028940091
S351  395131.7946496284 2182868.0289400904
S351 395129.82508991734  2182868.028940091
S351  395127.8555302056  2182868.028940091
S351  395127.8555302061  2182867.044160238
S351 395127.85553020576 2182866.0593803786
S351  395125.8859704955 2182866.0593803786
S351  395123.9164107834 2182866.0593803786
S351  395121.9468510706 2182866.0593803786
S351 395119.97729135986 2182866.0593803786
S351   395119.977291359 2182865.0746005233
S351  395119.9772913598 2182864.0898206644
S351 395118.40164358786 2182864.0898206644
S351  395116.8259958185  2182864.089820664
S351  395115.2503480503 2182864.0898206644
S351  395113.6747002808 2182864.0898206644
S351  395112.0990525099 2182864.0898206644
S351 395112.09905250964 2182862.1202609595
S351  395110.1294927987 2182862.1202609595
S351 395108.15993308584  2182862.120260959
S351 395106.19037337374 2182862.1202609595
S351  395104.2208136623 2182862.1202609595
S351 395104.22081366245 2182861.1354811005
S351  395104.2208136631 2182860.1507012416
S351  395102.2512539505  2182860.150701241
S351 395100.28169423994 2182860.1507012416
S351 395098.31213452877  2182860.150701241
S351 395096.34257481433 2182860.1507012416
S351  395096.3425748144  2182859.165921386
S351  395096.3425748149  2182858.181141527
S351  395094.3730151033  2182858.181141527
S351 395092.40345539374 2182858.1811415274
S351  395090.4338956822 2182858.1811415274
S351  395088.4643359674  2182858.181141527
S351 395088.46433596784 2182856.2115818188
S351  395086.4947762572 2182856.2115818188
S351  395084.5252165459 2182856.2115818188
S351 395082.55565683264 2182856.2115818188
S351  395080.5860971215 2182856.2115818188
S351 395080.58609712136 2182855.2268019654
S351 395080.58609712037 2182854.2420221064
S351   395079.010449351 2182854.2420221064
S351 395077.43480158015 2182854.2420221064
S351  395075.8591538119 2182854.2420221064
S351 395074.28350604227 2182854.2420221064
S351  395072.7078582712 2182854.2420221064
S351 395072.70785827097 2182853.2572422507
S351  395072.7078582712  2182852.272462392
S351  395070.7382985598  2182852.272462392
S351 395068.76873884915 2182852.2724623927
S351  395066.7991791378 2182852.2724623927
S351 395064.82961942453  2182852.272462392
S351 395064.82961942424  2182851.287682537
S351 395064.82961942436 2182850.3029026776
S351  395062.8600597126  2182850.302902678
S351  395060.8904999989  2182850.302902678
S351  395058.9209402886 2182850.3029026776
S351  395056.9513805789  2182850.302902678
S351  395056.9513805772 2182848.3333429694
S351 395054.98182086507  2182848.333342969
S351  395053.0122611523 2182848.3333429694
S351  395051.0427014429  2182848.333342969
S351  395049.0731417289  2182848.333342969
S351  395049.0731417297  2182847.348563116
S351 395049.07314172963 2182846.3637832566
S351  395047.4974939588 2182846.3637832566
S351  395045.9218461892 2182846.3637832566
S351 395044.34619842074  2182846.363783257
S351  395042.7705506497 2182846.3637832566
S351 395041.19490287977 2182846.3637832566
S351 395041.19490288035 2182844.3942235466
S351  395039.2253431688 2182844.3942235466
S351  395037.2557834579  2182844.394223546
S351 395035.28622374375 2182844.3942235466
S351   395033.316664033  2182844.394223546
S351  395033.3166640336 2182843.4094436974
S351  395033.3166640347 2182842.4246638343
S351  395031.3471043214 2182842.4246638343
S351  395029.3775446101 2182842.4246638347
S351  395027.4079848996  2182842.424663835
S351 395025.43842518574 2182842.4246638343
S351  395025.4384251862  2182841.439883979
S351  395025.4384251846  2182840.455104121
S351  395023.4688654749   2182840.45510412
S351  395021.4993057632   2182840.45510412
S351  395019.5297460496 2182840.4551041205
S351   395017.560186338   2182840.45510412
S351   395017.560186338 2182838.4855444115
S351  395015.9845385697 2182838.4855444115
S351  395014.4088907985  2182838.485544412
S351  395012.8332430286 2182838.4855444115
S351  395011.2575952587  2182838.485544411
S351  395009.6819474886  2182838.485544411
S351  395009.6819474889 2182837.5007645567
S351 395009.68194748845 2182836.5159846977
S351  395007.7123877779 2182836.5159846977
S351 395005.74282806553 2182836.5159846973
S351  395003.7732683538 2182836.5159846973
S351  395001.8037086414 2182836.5159846973
S351  395001.8037086417 2182835.5312048476
S351   395001.803708641 2182834.5464249845
S351 394999.83414893283 2182834.5464249845
S351    394997.86458922 2182834.5464249845
S351 394995.89502950513  2182834.546424985
S351   394993.925469795  2182834.546424985
S351  394993.9254697944 2182832.5768652745
S351  394992.3498220259  2182832.576865275
S351  394990.7741742546 2182832.5768652745
S351  394989.1985264859 2182832.5768652745
S351 394987.62287871575 2182832.5768652745
S351 394986.04723094555 2182832.5768652745
S351 394986.04723094555 2182831.5920854155
S351 394986.04723094613 2182830.6073055654
S351 394984.07767123444  2182830.607305566
S351 394982.10811152344  2182830.607305566
S351  394980.1385518118 2182830.6073055654
S351 394978.16899209825  2182830.607305566
S351 394978.16899209865  2182828.637745854
S351 394976.19943238655 2182828.6377458535
S351  394974.2298726738  2182828.637745854
S351 394972.26031296444 2182828.6377458535
S351  394970.2907532505  2182828.637745853
S351  394970.2907532503 2182827.6529659983
S351  394970.2907532506 2182826.6681861393
S351 394968.32119353674  2182826.668186139
S351 394966.35163382627 2182826.6681861393
S351  394964.3820741152 2182826.6681861393
S351  394962.4125144034  2182826.668186139
S351 394962.41251440323 2182825.6834062845
S351 394962.41251440346  2182824.698626425
S351  394960.4429546918  2182824.698626425
S351 394958.47339498095 2182824.6986264256
S351  394956.5038352667  2182824.698626425
S351  394954.5342755572  2182824.698626425
S351  394954.5342755571  2182822.729066717
S351  394952.9586277869 2182822.7290667226
S351  394951.3829800179 2182822.7290667165
S351 394949.80733224755 2182822.7290667165
S351 394948.23168447707 2182822.7290667165
S351 394946.65603670786 2182822.7290667165
S351 394946.65603670746  2182821.744286863
S351  394946.6560367075  2182820.759507004
S351 394944.68647699774 2182820.7595070037
S351 394942.71691728465 2182820.7595070046
S351  394940.7473575736 2182820.7595070046
S351  394938.7777978593  2182820.759507004
S351  394938.7777978601 2182819.7747271494
S351 394938.77779786004   2182818.78994729
S351  394936.8082381485   2182818.78994729
S351 394934.83867843635 2182818.7899472904
S351 394932.86911872355   2182818.78994729
S351 394930.89955901407   2182818.78994729
S351  394930.8995590121 2182816.8203875856
S351  394928.9299993015  2182816.820387585
S351  394926.9604395889 2182816.8203875856
S351  394924.9908798756  2182816.820387585
S351  394923.0213201644  2182816.820387585
S351   394923.021320165 2182815.8356077257
S351 394923.02132016484  2182814.850827867
S351 394921.05176045373  2182814.850827867
S351  394919.0822007447  2182814.850827867
S351 394917.11264102836  2182814.850827867
S351 394915.14308131806 2182814.8508278676
S351 394915.14308131865  2182813.866048014
S351 394915.14308131835 2182812.8812681544
S351  394913.5674335491  2182812.881268155
S351  394911.9917857797 2182812.8812681553
S351   394910.416138005  2182812.881268155
S351 394908.84049023804 2182812.8812681544
S351 394907.26484246843  2182812.881268155
S351  394907.2648424686 2182810.9117084444
S351   394905.295282758 2182810.9117084444
S351  394903.3257230467 2182810.9117084444
S351 394901.35616333346 2182810.9117084444
S351  394899.3866036196  2182810.911708444
S351 394899.38660362136 2182809.9269285905
S351 394899.38660362095 2182808.9421487357
S351  394897.4170439099 2182808.9421487357
S351 394895.44748419814 2182808.9421487357
S351  394893.4779244858 2182808.9421487353
S351 394891.50836477417 2182808.9421487357
S351 394891.50836477446  2182807.957368877
S351 394891.50836477394  2182806.972589018
S351 394889.93271700304  2182806.972589018
S351 394888.35706923215 2182806.9725890174
S351  394886.7814214651 2182806.9725890174
S351  394885.2057736939  2182806.972589018
S351  394883.6301259227  2182806.972589018
S351 394883.63012592425  2182805.987809162
S351 394883.63012592506 2182805.0030293036
S351  394881.6605662131 2182805.0030293036
S351  394879.6910065004  2182805.003029304
S351  394877.7214467885 2182805.0030293036
S351 394875.75188707723  2182805.003029304
S351 394875.75188707677  2182803.033469595
S351   394874.274717294  2182803.033469595
S351  394872.7975475094 2182803.0334695945
S351  394871.3203777257  2182803.033469595
S351 394869.84320794157  2182803.033469595
S351 394869.84320794133 2182802.0486897416
S351 394869.84320794145 2182801.0639098827
S351 394867.87364822923 2182801.0639098827
S351 394865.90408851905 2182801.0639098817
S351 394863.93452880817 2182801.0639098827
S351 394861.96496909397 2182801.0639098827
S351  394861.9649690951 2182799.0943501717
S351 394860.48779931234 2182799.0943501717
S351  394859.0106295266  2182799.094350172
S351 394857.53345974436 2182799.0943501717
S351   394856.056289959  2182799.094350172
S351 394856.05628996086 2182798.1095703226
S351  394856.0562899591   2182797.12479046
S351  394854.5791201753   2182797.12479046
S351  394853.1019503923   2182797.12479046
S351  394851.6247806062   2182797.12479046
S351  394850.1476108223   2182797.12479046
S351 394850.14761081967 2182796.1400106046
S351  394850.1476108228 2182795.1552307457
S351   394848.670441039  2182795.155230745
S351  394847.1932712562  2182795.155230746
S351  394845.7161014703 2182795.1552307457
S351  394844.2389316865 2182795.1552307457
S351  394844.2389316861 2182793.1856710375
S351  394842.7617619025  2182793.185671037
S351 394841.28459211846  2182793.185671037
S351   394839.807422334  2182793.185671037
S351 394838.33025255037 2182793.1856710375
S351  394838.3302525507 2182792.2008911823
S351  394838.3302525516  2182791.216111323
S351  394836.3606928383  2182791.216111323
S351 394834.39113312704  2182791.216111323
S351  394832.4215734164 2182791.2161113224
S351  394830.4520137025 2182791.2161113224
S351 394830.45201370283  2182790.231331473
S351 394830.45201370225   2182789.24655161
S351  394828.9748439188 2182789.2465516105
S351 394827.49767413485 2182789.2465516105
S351  394826.0205043518 2182789.2465516105
S351   394824.543334567 2182789.2465516105
S351 394824.54333456716 2182787.2769919015
S351  394822.5737748562  2182787.276991902
S351 394820.60421514465  2182787.276991902
S351 394818.63465543103  2182787.276991902
S351  394818.6346554318 2182786.2922120467
S351  394818.6346554316 2182785.3074321877
S351 394817.15748564707 2182785.3074321873
S351  394815.6803158634 2182785.3074321877
S351 394814.20314607926 2182785.3074321877
S351   394812.725976296 2182785.3074321877
S351 394812.72597629705 2182783.3378724796
S351  394810.7564165838 2182783.3378724796
S351 394808.78685687116 2182783.3378724796
S351  394806.8172971592  2182783.337872479
S351   394804.847737448  2182783.337872479
S351  394804.8477374482 2182782.3530926234
S351  394804.8477374475 2182781.3683127644
S351  394803.3705676657 2182781.3683127644
S351 394801.89339787944  2182781.368312765
S351  394800.4162280941  2182781.368312765
S351  394798.9390583123  2182781.368312765
S351   394798.939058312 2182780.3835329097
S351 394798.93905831216 2182779.3987530502
S351 394797.46188852785 2182779.3987530502
S351   394795.984718743 2182779.3987530507
S351  394794.5075489618 2182779.3987530507
S351  394793.0303791761 2182779.3987530502
S351  394793.0303791753  2182778.413973192
S351  394793.0303791764  2182777.429193342
S351 394791.55320939084  2182777.429193342
S351 394790.07603960886  2182777.429193342
S351 394788.59886982373  2182777.429193342
S351  394787.1217000395 2182777.4291933426
S351  394787.1217000402   2182775.45963363
S351 394785.15214032825 2182775.4596336293
S351 394783.18258061836 2182775.4596336293
S351 394781.21302090643 2182775.4596336293
S351  394779.2434611926 2182775.4596336293
S351  394779.2434611926 2182774.4748537745
S351  394779.2434611931  2182773.490073916
S351   394777.766291409  2182773.490073916
S351 394776.28912162705 2182773.4900739156
S351 394774.81195184065  2182773.490073916
S351  394773.3347820565  2182773.490073916
S351 394773.33478205744  2182772.505294061
S351 394773.33478205884  2182771.520514202
S351  394771.8576122721 2182771.5205142014
S351   394770.380442489  2182771.520514201
S351  394768.9032727054 2182771.5205142014
S351 394767.42610292137 2182771.5205142014
S351  394767.4261029227 2182769.5509544928
S351  394765.9489331375 2182769.5509544928
S351 394764.47176335315 2182769.5509544923
S351  394762.9945935683 2182769.5509544928
S351  394761.5174237844 2182769.5509544923
S351  394761.5174237844 2182768.5661746394
S351  394761.5174237849  2182767.581394781
S351 394760.04025400104 2182767.5813947804
S351  394758.5630842168 2182767.5813947804
S351 394757.08591443213  2182767.581394781
S351 394755.60874464834  2182767.581394781
S351 394755.60874464654  2182766.596614925
S351 394755.60874464916  2182765.611835066
S351 394753.63918493735 2182765.6118350667
S351  394751.6696252249  2182765.611835066
S351  394749.7000655131 2182765.6118350658
S351 394747.73050580197 2182765.6118350667
S351  394747.7305058014  2182763.642275362
S351  394746.2533360177  2182763.642275362
S351  394744.7761662335 2182763.6422753613
S351  394743.2989964502  2182763.642275362
S351 394741.82182666514 2182763.6422753613
S351 394741.82182666543 2182762.6574955024
S351  394741.8218266649 2182761.6727156434
S351  394740.3446568813 2182761.6727156434
S351  394738.8674870972  2182761.672715644
S351  394737.3903173141 2182761.6727156434
S351 394735.91314752906  2182761.672715644
S351  394735.9131475289 2182760.6879357896
S351 394735.91314752924 2182759.7031559306
S351  394733.9435878186 2182759.7031559306
S351 394731.97402810457 2182759.7031559306
S351 394730.00446839386  2182759.703155931
S351  394730.0044683945 2182757.7335962206
S351 394728.03490868263 2182757.7335962206
S351 394726.06534897006   2182757.73359622
S351 394724.09578925825 2182757.7335962206
S351 394722.12622954696   2182757.73359622
S351 394722.12622954906 2182756.7488163677
S351  394722.1262295462  2182755.764036512
S351 394720.64905976277 2182755.7640365125
S351 394719.17188997753 2182755.7640365125
S351 394717.69472019444 2182755.7640365125
S351 394716.21755041234  2182755.764036512
S351  394716.2175504106  2182753.794476798
S351  394714.7403806272 2182753.7944767973
S351  394713.2632108448  2182753.794476798
S351  394711.7860410605 2182753.7944767973
S351 394710.30887127446  2182753.794476798
S351 394710.30887127423  2182752.809696948
S351 394710.30887127446  2182751.824917086
S351 394708.83170149126  2182751.824917086
S351 394707.35453170753  2182751.824917086
S351 394705.87736192206 2182751.8249170855
S351 394704.40019213874 2182751.8249170855
S351 394704.40019213804 2182750.8401372307
S351 394704.40019213787  2182749.855357371
S351  394702.4306324272 2182749.8553573713
S351  394700.4610727172 2182749.8553573713
S351 394698.49151300255  2182749.855357371
S351  394696.5219532912 2182749.8553573717
S351 394696.52195329155 2182747.8857976627
S351 394694.55239357904 2182747.8857976627
S351 394692.58283386583 2182747.8857976627
S351   394690.613274156 2182747.8857976627
S351  394690.6132741561  2182746.901017808
S351 394690.61327415536  2182745.916237948
S351  394689.1361043736 2182745.9162379485
S351  394687.6589345874 2182745.9162379485
S351 394686.18176480336 2182745.9162379485
S351 394684.70459502016  2182745.916237949
S351 394684.70459501987  2182744.931458099
S351  394684.7045950214 2182743.9466782357
S351  394683.2274252357 2182743.9466782357
S351  394681.7502554535  2182743.946678236
S351  394680.2730856696  2182743.946678236
S351 394678.79591588385 2182743.9466782357
S351  394678.7959158842  2182741.977118527
S351 394677.31874609995 2182741.9771185275
S351 394675.84157631523  2182741.977118527
S351  394674.3644065313  2182741.977118527
S351  394672.8872367471 2182741.9771185275
S351  394672.8872367472  2182740.992338672
S351  394672.8872367478  2182740.007558814
S351  394671.5741969381 2182740.0075588133
S351 394670.26115713204  2182740.007558814
S351  394668.9481173231 2182740.0075588133
S351 394668.94811732345 2182738.0379991042
S351  394666.9785576109 2182738.0379991047
S351  394665.0089979003 2182738.0379991047
S351  394663.0394381891 2182738.0379991047
S351 394663.03943818924 2182737.0532192495
S351  394663.0394381885   2182736.06843939
S351  394661.7263983807   2182736.06843939
S351   394660.413358574 2182736.0684393905
S351  394659.1003187643   2182736.06843939
S351  394659.1003187636  2182735.083659537
S351  394659.1003187647  2182734.098879678
S351  394657.7872789561 2182734.0988796777
S351 394656.47423914855  2182734.098879678
S351  394655.1611993394  2182734.098879678
S351 394655.16119933914  2182733.114099823
S351 394655.16119933943  2182732.129319964
S351 394653.19163962855  2182732.129319964
S351 394651.22207991703 2182732.1293199635
S351   394651.222079918 2182730.1597602554
S351 394649.90904011053  2182730.159760256
S351 394648.59600030136  2182730.159760256
S351 394647.28296049323 2182730.1597602554
S351 394647.28296049265 2182729.1749804006
S351  394647.2829604912  2182728.190200541
S351 394645.80579070706 2182728.1902005407
S351 394644.32862092654 2182728.1902005407
S351  394642.8514511402  2182728.190200541
S351  394641.3742813574  2182728.190200541
S351 394641.37428135495  2182727.205420686
S351 394641.37428135704  2182726.220640827
S351 394640.06124155014  2182726.220640827
S351 394638.74820174027  2182726.220640827
S351 394637.43516193144  2182726.220640827
S351 394637.43516193214 2182724.2510811184
S351  394635.4656022211  2182724.251081118
S351 394633.49604250945  2182724.251081118
S351 394633.49604250933 2182723.2663012645
S351  394633.4960425097  2182722.281521406
S351 394632.18300269987  2182722.281521406
S351  394630.8699628937 2182722.2815214056
S351 394629.55692308454  2182722.281521406
S351 394629.55692308495  2182721.296741551
S351  394629.5569230845  2182720.311961692
S351  394627.5873633737 2182720.3119616914
S351 394625.61780366226  2182720.311961692
S351 394625.61780366185  2182718.342401987
S351  394624.1406338802  2182718.342401987
S351 394622.66346409277 2182718.3424019865
S351  394621.1862943102  2182718.342401987
S351  394619.7091245259  2182718.342401987
S351 394619.70912452624  2182717.357622128
S351 394619.70912452583  2182716.372842269
S351  394618.3960847171 2182716.3728422695
S351 394617.08304491075  2182716.372842269
S351 394615.77000510145 2182716.3728422695
S351   394615.770005101 2182715.3880624156
S351 394615.77000510105 2182714.4032825567
S351 394614.45696529286  2182714.403282556
S351 394613.14392548567  2182714.403282556
S351 394611.83088567684  2182714.403282557
S351  394611.8308856748  2182712.433722846
S351 394609.86132596515 2182712.4337228467
S351  394607.8917662549 2182712.4337228467
S351 394607.89176625403  2182711.448942993
S351  394607.8917662551  2182710.464163137
S351  394606.5787264466 2182710.4641631376
S351 394605.26568663784 2182710.4641631376
S351  394603.9526468287 2182710.4641631376
S351  394603.9526468286 2182708.4946034253
S351  394602.6396070206 2182708.4946034257
S351 394601.32656721235 2182708.4946034253
S351  394600.0135274038 2182708.4946034257
S351  394600.0135274053 2182707.5098235705
S351 394600.01352740463 2182706.5250437115
S351 394598.04396769335 2182706.5250437115
S351  394596.0744079827 2182706.5250437115
S351 394594.10484826873 2182706.5250437115
S351 394594.10484826844  2182705.540263856
S351  394594.1048482687 2182704.5554839973
S351  394592.1352885575  2182704.555483997
S351 394590.16572884563  2182704.555483997
S351 394590.16572884587 2182703.5707041435
S351 394590.16572884656 2182702.5859242883
S351  394588.8526890398 2182702.5859242887
S351  394587.5396492299 2182702.5859242883
S351 394586.22660942114  2182702.585924288
S351 394586.22660942166 2182700.6163645736
S351  394584.2570497107  2182700.616364574
S351  394582.2874899991  2182700.616364574
S351 394582.28748999897 2182699.6315847244
S351  394582.2874899993 2182698.6468048617
S351  394580.9744501895 2182698.6468048617
S351 394579.66141038336 2182698.6468048617
S351  394578.3483705743  2182698.646804862
S351  394578.3483705742  2182696.677245153
S351   394576.871200791 2182696.6772451526
S351   394575.394031006  2182696.677245153
S351  394573.9168612219 2182696.6772451536
S351 394572.43969143863  2182696.677245153
S351  394572.4396914385 2182695.6924652974
S351  394572.4396914376 2182694.7076854385
S351 394570.47013172694 2182694.7076854385
S351 394568.50057201565 2182694.7076854385
S351 394568.50057201606 2182693.7229055837
S351  394568.5005720156  2182692.738125725
S351  394567.1875322082 2182692.7381257247
S351 394565.87449240056  2182692.738125725
S351 394564.56145258993 2182692.7381257247
S351  394564.5614525894 2182691.7533458653
S351 394564.56145259086  2182690.768566012
S351  394563.2484127827  2182690.768566013
S351  394561.9353729728 2182690.7685660124
S351  394560.6223331654 2182690.7685660124
S351 394560.62233316596 2182688.7990063042
S351 394558.65277345496 2182688.7990063042
S351  394556.6832137434  2182688.799006304
S351 394556.68321374385  2182687.814226449
S351 394556.68321374356 2182686.8294465896
S351 394555.20604396006 2182686.8294465896
S351  394553.7288741749 2182686.8294465896
S351 394552.25170439185 2182686.8294465896
S351 394550.77453460696 2182686.8294465896
S351 394550.77453460766 2182684.8598868805
S351  394549.4614948019  2182684.859886881
S351 394548.14845499187  2182684.859886881
S351  394546.8354151828  2182684.859886881
S351  394546.8354151834 2182683.8751070257
S351  394546.8354151831  2182682.890327167
S351 394545.52237537655 2182682.8903271668
S351   394544.209335567  2182682.890327167
S351  394542.8962957598 2182682.8903271663
S351  394542.8962957582 2182681.9055473134
S351  394542.8962957585 2182680.9207674544
S351 394540.92673604726  2182680.920767454
S351  394538.9571763354  2182680.920767454
S351  394538.9571763363  2182678.951207744
S351  394537.6441365295  2182678.951207744
S351  394536.3310967223  2182678.951207744
S351  394535.0180569108  2182678.951207744
S351 394535.01805691153 2182677.9664278943
S351  394535.0180569114 2182676.9816480316
S351  394533.5408871277  2182676.981648032
S351  394532.0637173435 2182676.9816480316
S351 394530.58654755884 2182676.9816480316
S351 394529.10937777505 2182676.9816480316
S351 394529.10937777534 2182675.9968681764
S351 394529.10937777476 2182675.0120883174
S351  394527.1398180638 2182675.0120883174
S351  394525.1702583523 2182675.0120883174
S351  394525.1702583517  2182673.042528613
S351  394523.8572185459 2182673.0425286125
S351  394522.5441787358  2182673.042528612
S351  394521.2311389281 2182673.0425286125
S351 394521.23113892804  2182672.057748753
S351  394521.2311389271 2182671.0729688946
S351 394519.26157921774  2182671.072968895
S351 394517.29201950633  2182671.072968894
S351 394517.29201950546 2182670.0881890412
S351 394517.29201950505 2182669.1034091823
S351 394515.97897969896 2182669.1034091823
S351 394514.66593988985 2182669.1034091823
S351  394513.3529000805 2182669.1034091823
S351  394513.3529000829 2182667.1338494713
S351  394511.8757302962 2182667.1338494713
S351 394510.39856051304 2182667.1338494713
S351  394508.9213907308 2182667.1338494713
S351 394507.44422094536  2182667.133849472
S351 394507.44422094454  2182666.149069619
S351 394507.44422094553 2182665.1642897637
S351 394506.13118113735 2182665.1642897637
S351  394504.8181413288  2182665.164289763
S351    394503.50510152  2182665.164289763
S351  394503.5051015198  2182663.194730051
S351  394501.5355418089 2182663.1947300513
S351 394499.56598209986  2182663.194730051
S351 394499.56598209735 2182662.2099501956
S351   394499.565982098 2182661.2251703367
S351 394498.25294228946  2182661.225170337
S351  394496.9399024833 2182661.2251703367
S351 394495.62686267286  2182661.225170336
S351  394495.6268626722  2182660.240390482
S351  394495.6268626734  2182659.255610622
S351   394494.313822864 2182659.2556106225
S351   394493.000783057 2182659.2556106225
S351  394491.6877432484  2182659.255610622
S351 394491.68774324824  2182658.270830769
S351 394491.68774324725  2182657.286050914
S351 394489.71818353725  2182657.286050914
S351  394487.7486238252  2182657.286050914
S351  394485.7790641138 2182657.2860509134
S351 394485.77906411415 2182658.5990907177
S351 394485.77906411357  2182659.912130527
S351 394485.77906411455 2182661.2251703367
S351  394484.7942842553 2182661.2251703367
S351  394483.8095044008 2182661.2251703367
S351 394483.80950440094  2182662.209950195
S351  394483.8095044001  2182663.194730051
S351  394481.8399446889  2182663.194730051
S351  394481.8399446894 2182665.1642897637
S351 394479.87038497935  2182665.164289763
S351  394479.8703849806  2182666.149069613
S351   394479.870384977 2182667.1338494713
S351  394478.8856051215 2182667.1338494713
S351  394477.9008252681 2182667.1338494723
S351 394477.90082526434 2182669.1034091823
S351 394475.93126555387 2182669.1034091823
S351 394475.93126555375 2182670.0881890412
S351 394475.93126555404  2182671.072968895
S351 394473.96170584206 2182671.0729688946
S351  394473.9617058452  2182672.057748753
S351  394473.9617058422  2182673.042528612
S351 394472.97692598496 2182673.0425286125
S351  394471.9921461287 2182673.0425286125
S351 394471.99214612984  2182675.012088318
S351  394470.0225864162 2182675.0120883174
S351 394470.02258641785 2182675.9968681764
S351 394470.02258641867  2182676.981648032
S351 394469.03780656133 2182676.9816480316
S351  394468.0530267035 2182676.9816480316
S351  394468.0530267044  2182677.966427895
S351 394468.05302670447  2182678.951207744
S351  394466.0834669932  2182678.951207744
S351 394466.08345769433  2182680.117630076
S351 394467.47306666663 2182681.0231999997
S351  394570.5242000008  2182732.781900001
S351  394590.9555999993  2182743.046200004
S351 394663.53259999864  2182779.496500001
S351 394748.52979999885  2182813.659200002
S351  394818.3556999994 2182828.2152000056
S351 395043.74540000036  2182873.352400003
S351  395149.7698257645 2182894.2536854222
S351  395153.0082467098 2182871.9680595137
S353  395371.0607999995  2183558.583599997
S353 395256.54859999963       2183505.1831
S353 395247.24489999877 2183518.6126000066
S353  395227.4875000014 2183546.0210000034
S353  395163.3494909789  2183693.003831921
S353 395138.76860000053 2183749.3350000004
S353 395279.67930000037        2183767.537
S353  395371.0607999995  2183558.583599997
S354 395618.86530000006  2184228.963400001
S354 395471.95029999956  2184181.963200001
S354  395428.2134999995 2184176.4741999987
S354 395428.16240000224  2184176.684299999
S354 395399.52329999855 2184294.4580000015
S354  395584.2594000001 2184335.8766000005
S354 395618.86530000006  2184228.963400001
S355   394854.924759171  2181866.555374723
S355 394852.62269999954 2181855.0566000007
S355  394857.5147999993 2181825.9532000017
S355  394859.0180000001 2181794.6444000024
S355 394868.41440000135  2181766.632600002
S355   394868.683400002  2181716.309800001
S355  394892.2017000013  2181499.872500002
S355 394885.95959999977 2181499.2672000006
S355 394770.58289999893 2181486.5299000014
S355  394649.3712872242  2181444.086566402
S355  394628.3332958986 2181461.3477909653
S355  394616.6682568359  2181499.123669876
S355  394598.6923352055  2181515.184460888
S355 394591.38718994067 2181538.8416874497
S355  394586.1058178732   2181548.56092573
S355  394578.5714855953  2181564.976941358
S355  394591.3871899403   2181588.56092573
S355  394596.1058178732  2181615.691052687
S355 394571.16044433735  2181637.979871046
S355 394566.38718994154 2181688.8416874483
S355 394559.44871338026  2181695.041638622
S355 394540.63477905263  2181688.291150339
S355 394529.50425537303 2181688.9539921377
S355 394517.02683837875 2181742.5819218257
S355   394536.387189941   2181748.56092573
S355  394541.1058178721 2181778.8416874483
S355  394556.3871899413  2181798.560925729
S355 394562.95396240195 2181812.8687870614
S355 394592.13868530234 2181821.8812382314
S355  394609.0406933599 2181848.4559452627
S355  394643.0268994127 2181854.7999394056
S355 394651.62583740463 2181864.4239628427
S355  394669.3089428725  2181863.369275339
S355 394676.10581787187  2181848.560925729
S355 394682.70341308607   2181843.84168745
S355   394701.105817872   2181853.84168745
S355  394711.3871899427 2181858.5609257296
S355 394721.24650390673  2181863.918591747
S355 394731.10581787175   2181858.56092573
S355  394744.8143139641  2181852.269421829
S355  394751.1058178721 2181838.5609257296
S355  394788.1529370122  2181829.941540966
S355  394800.8247509761  2181844.123669872
S355 394813.27592285135 2181855.2479374497
S355  394831.3871899416 2181863.5609257347
S355   394842.849592285 2181869.7889530733
S355   394854.924759171  2181866.555374723
S356  395267.2843097461 2182120.4452065565
S356  395272.0431000015  2181996.705000004
S356 395267.40940000146 2181916.6059000026
S356  395246.9172999993 2181562.9721000046
S356  395242.6984000027  2181530.224600004
S356 395214.05070000084  2181531.445000002
S356   395120.627700001 2181521.9308999996
S356  394892.2017000013  2181499.872500002
S356   394868.683400002  2181716.309800001
S356 394868.41440000135  2181766.632600002
S356  394859.0180000001 2181794.6444000024
S356  394857.5147999993 2181825.9532000017
S356 394852.62269999954 2181855.0566000007
S356   394854.924759171  2181866.555374723
S356 394866.15708740207  2181863.547497997
S356 394877.09031494096  2181864.198132764
S356  394888.2469311517 2181888.5072147977
S356  394939.7227612317 2181894.5374882314
S356 394956.32920654287  2181893.547497997
S356 395004.72855957167  2181904.675427684
S356 395011.22514160146  2181939.481335886
S356  395037.1663037126   2181962.65882612
S356 395046.10581787024  2181975.158826126
S356 395031.10581787175 2181988.5609257333
S356  395026.3871899436 2181993.8416874497
S356  395021.1058178699 2181998.5609257333
S356  395016.3871899427  2182038.106824167
S356   395052.507185058 2182043.7354862825
S356  395071.1058178709  2182053.841687454
S356 395084.37821777444  2182059.932996042
S356 395096.13358886703 2182053.5450565927
S356  395116.2465039056   2182054.74378706
S356  395176.2465039049 2182051.1683476027
S356  395223.1376782237 2182053.9625370577
S356 395213.58445556555 2182080.5885136225
S356  395232.3933544919 2182104.8597538546
S356 395242.02409179806 2182125.8424198697
S356  395267.2843097461 2182120.4452065565

[SYMBOLS]
;;Name X_Coord Y_Coord
;;--------------------
Gage1 393535.74591101473 2191113.091750008

